 H Si 
 1.0000000000000000
    14.5894768954547285    0.0000000000000000    0.0000000000000000
     0.0000000000000000   14.5894768954547285    0.0000000000000000
     0.0000000000000000    0.0000000000000000   26.1238677999999993
 H   Si 
  50  53
Cartesian
 14.2228999999999992  7.8727000000000000 12.0127778000000003
  6.6578600000000003 10.9329000000000001 11.3533977999999998
 11.0776000000000003 11.9080999999999992 13.6634177999999995
  7.3656899999999998  0.8865030000000000 11.6443177999999996
 10.8077000000000005  1.9923299999999999 12.1122777999999993
  9.2057699999999993 14.2205999999999992 10.8236228000000008
 10.0679999999999996  8.2854399999999995 10.0000000000000000
  9.5987200000000001  2.6413300000000000 14.1470078000000008
  9.5115999999999996  5.8344600000000000 10.4715158000000006
  9.4691299999999998  0.7692390000000000 12.5845777999999999
  9.4791200000000000  3.8107500000000001 12.0144377999999996
 10.1426999999999996  3.6613199999999999 15.7093678000000008
  7.8899699999999999  0.8187330000000000 11.0776468000000001
  0.4684620000000000  5.7655399999999997 11.5256577999999994
 11.2012999999999998  4.2458799999999997 13.3285877999999993
 11.7273999999999994  4.1220999999999997 10.8746638000000004
 14.5464000000000002  5.6247499999999997 13.7101778000000003
  9.9916199999999993  5.5462300000000004 13.7657177999999991
  8.2215100000000003  6.8953100000000003 11.2401178000000002
 13.3391999999999999  5.0173600000000000 12.4569378000000004
 11.7207000000000008 12.1190999999999995 13.2511577999999997
 11.9389000000000003 10.6738999999999997 15.2050578000000005
 14.3370999999999995  3.7727700000000000 10.8090688000000004
  9.4730600000000003 10.4297000000000004 10.2916627999999992
 13.0710999999999995  3.2786900000000001 15.0198078000000006
 10.2393000000000001  7.7847000000000000 12.4217177999999997
  8.5997000000000003  9.3835400000000000 11.9049177999999998
 13.0152000000000001 10.0991000000000000 13.4241378000000005
 12.9179999999999993  6.0308000000000002 14.6795577999999995
  7.4426600000000001  6.1550599999999998 13.3720478000000007
  9.6358800000000002 11.6260999999999992 12.1001378000000006
 13.5793999999999997 10.5108999999999995 13.1609877999999991
 11.3231000000000002 13.7727000000000004 12.0609877999999995
 10.1891999999999996  2.7416499999999999 10.5148007999999997
 12.0138999999999996  1.9634100000000001 14.1203078000000009
 10.2459000000000007  8.0237599999999993 10.7030258000000007
 14.0955999999999992  3.4827800000000000 13.1472878000000009
  6.9950500000000000 14.3606999999999996 14.6677578000000004
  0.6855640000000000  5.4534300000000000 10.8669148000000000
 10.7378000000000000  1.3503400000000001 16.1075978000000006
 10.4451999999999998  9.7431599999999996 12.8198878000000001
 11.1281999999999996  6.1269799999999996 11.8363478000000004
 10.9900000000000002 14.2995000000000001 14.2285778000000001
 12.4753000000000007  0.9246020000000000 11.7796778000000000
 11.7301000000000002 11.3484999999999996 11.4270677999999997
 13.5990000000000002  8.5796700000000001 14.6640277999999995
 13.3492999999999995  2.1354700000000002 11.8815878000000001
  0.8145390000000000  9.1304099999999995 13.0731078000000007
 12.1605000000000008  6.0602099999999997 14.8014778000000007
 13.9789999999999992  8.0786099999999994 14.3261477999999993
  3.8660399999999999 10.0800000000000001 14.4332878000000004
  2.5594199999999998  6.8143000000000002 13.6704577999999994
  8.6066900000000004 12.4275000000000002 12.8805177999999998
  3.8171599999999999  5.0785299999999998 12.8181978000000001
  9.6395199999999992 14.4016000000000002 13.6846277999999995
 13.0050000000000008 13.7277000000000005 15.5376778000000009
  5.4887899999999998  0.9039060000000000 13.4987878000000006
  5.1056800000000004  6.5302100000000003 11.5670578000000006
  0.9111260000000000  3.0215900000000002 13.3843177999999998
  4.3353700000000002  0.9661910000000000 15.4808578000000008
  7.7399899999999997  7.5582900000000004 14.7041477999999994
  3.8206199999999999  9.9130500000000001 12.1958777999999999
 13.9451000000000001 13.5311000000000003 13.5541377999999995
 13.8248999999999995  2.4080599999999999 10.4941917999999994
  5.9067200000000000  6.4024700000000001 15.4227378000000002
  1.8374400000000000 12.3605000000000000 16.1238677999999993
  5.1094900000000001 13.1563999999999997 13.1187577999999991
  0.8488510000000000  5.8362600000000002 14.9203077999999998
  7.9451499999999999  3.7172299999999998 11.9013878000000002
  1.1138399999999999  0.7505980000000000 13.7457677999999994
 14.1127000000000002 13.5808999999999997 10.1677041999999993
  0.1040240000000000 11.4519000000000002 10.7615238000000009
 12.9449000000000005  8.3391300000000008 11.3900577999999992
  3.9632100000000001  3.3610400000000000 15.8113177999999994
  6.6679199999999996 12.4387000000000008 11.6303978000000008
  5.3920100000000000  4.3956900000000001 14.4235178000000008
  6.8547900000000004  2.8519399999999999 13.7604077999999994
  2.4034100000000000 14.5092999999999996 15.5585977999999994
  8.2530500000000000  0.2649400000000000 15.3299678000000004
  9.2075399999999998 10.0340000000000007 15.9315078000000003
 12.5974000000000004 10.5356000000000005 10.6361678000000008
  2.3155199999999998  3.6118999999999999 11.6107478000000004
  7.3403099999999997  2.2636400000000001 15.9666677999999997
  5.7125899999999996  8.7383900000000008 11.7232877999999996
 12.7082999999999995 14.1304999999999996 11.7606278000000000
  2.9523299999999999 12.9110999999999994 12.2392178000000005
 10.8977000000000004  8.4869900000000005 15.2884878000000004
  7.5261500000000003  9.0908700000000007 13.0179077999999997
  2.3471899999999999  0.3980560000000000 11.7523178000000001
  5.5252100000000004 11.5721000000000007 14.9483878000000008
  9.8317200000000007  6.4924299999999997 14.8839077999999994
 12.3261000000000003  5.3633600000000001 11.4077477999999992
  4.2103999999999999  1.8420200000000000 11.6915177999999997
  7.7885099999999996 10.9953000000000003 14.2643977999999994
 10.9495000000000005  2.7429299999999999 13.4246478000000007
  1.7683000000000000  3.8958699999999999 15.2632878000000005
 11.2973999999999997  8.5000999999999998 13.0575577999999997
  4.0677199999999996  7.7711300000000003 14.9946578000000006
  7.2390699999999999  5.9255199999999997 11.8561378000000008
  0.9687690000000000 11.9441000000000006 13.1176677999999995
  3.5156600000000000 11.9984000000000002 10.1743474999999997
  2.0103000000000000  8.3928899999999995 12.2012978000000007
  1.5082400000000000 10.5208999999999993 14.8821677999999995
