 H Si 
 1.0000000000000000
    14.5307357155388193    0.0000000000000000    0.0000000000000000
     0.0000000000000000   14.5307357155388193    0.0000000000000000
     0.0000000000000000    0.0000000000000000    8.9847471189563866
 H   Si 
   5  76
Cartesian
  3.8068900000000001  7.5002300000000002  5.6521699999999999
  3.2841900000000002 11.1434999999999995  7.5201500000000001
 14.4214000000000002 11.1057000000000006  6.5219500000000004
 14.0447000000000006 10.9200999999999997  2.2993800000000002
 13.1559000000000008  7.8434600000000003  0.4132110000000000
 13.3556000000000008 12.0480999999999998  6.9317700000000002
  9.3713400000000000  2.0804499999999999  0.3641190000000000
 10.9638000000000009 11.4124999999999996  1.7459600000000000
  1.7085800000000000  0.5681030000000000  6.2461200000000003
  8.5962800000000001  5.2292100000000001  4.3248499999999996
  7.0251299999999999  3.4219800000000000  3.7986100000000000
  5.3817199999999996  5.2649699999999999  6.5873100000000004
 11.7134000000000000  4.4798000000000000  2.3564699999999998
  7.8978299999999999 11.9075000000000006  3.5872899999999999
 10.1149000000000004  2.0648300000000002  5.3582599999999996
  8.7980699999999992  6.5053999999999998  2.3156800000000000
  9.6567600000000002 13.3393999999999995  1.4762200000000001
 12.3318999999999992  5.4409500000000000  5.5781900000000002
  6.5031299999999996  0.2913300000000000  1.7486600000000001
  7.8385100000000003  8.6356699999999993  2.6498699999999999
  5.7630999999999997  4.5454999999999997  2.3376399999999999
  3.9313099999999999  5.3460599999999996  8.4568899999999996
 12.4194999999999993  1.6098699999999999  6.1798700000000002
  6.2560399999999996  9.0544100000000007  0.8207310000000000
  4.9161099999999998 14.0404999999999998  3.4247299999999998
  7.3625699999999998 12.5450999999999997  1.3532100000000000
  9.5989299999999993  0.4672310000000000  3.4118400000000002
  2.9289399999999999  3.9905100000000000  2.5199300000000000
  4.4114699999999996  3.4184999999999999  0.8444240000000000
 10.6974000000000000  9.9470799999999997  8.8664799999999993
  6.2107799999999997 14.2670999999999992  5.5575500000000000
  5.9494600000000002 10.9465000000000003  4.7132899999999998
 11.9471000000000007  0.8505680000000000  2.6688000000000001
  8.3283900000000006  2.6817299999999999  7.1348700000000003
 12.8407000000000000  2.2731900000000000  8.4762199999999996
  9.4557300000000009 10.2213999999999992  3.1472699999999998
 11.1960999999999995 11.1113000000000000  6.9118700000000004
 10.5472000000000001  4.1325200000000004  4.4315600000000002
  4.9801299999999999  6.9362700000000004  4.9477900000000004
  6.0292899999999996 12.1601999999999997  6.5821300000000003
  8.3789099999999994 13.7104999999999997  4.9032099999999996
  9.9342699999999997 14.4566999999999997  8.5743100000000005
  8.0655199999999994  1.8243700000000000  2.3502600000000000
  4.2196999999999996 12.1782000000000004  8.1210500000000003
  1.0982099999999999  0.1617450000000000  0.3730440000000000
  1.0351800000000000  0.6793820000000000  2.6672500000000001
  7.8129499999999998 11.7640999999999991  8.0960900000000002
  5.2198599999999997 11.1283999999999992  1.0539700000000001
  6.1226000000000003  1.5512400000000000  6.8564200000000000
  1.6054200000000001  4.3607199999999997  7.8221100000000003
  6.6076800000000002  8.6099200000000007  4.7145700000000001
  2.8633899999999999  0.6002960000000001  4.2073999999999998
  8.2850900000000003  9.4877300000000009  8.4086599999999994
  7.2063100000000002  5.5453700000000001  0.8026210000000000
  5.2374200000000002  3.2729400000000002  5.5191800000000004
 13.8909000000000002 12.9801000000000002  0.0461326000000000
 11.1080000000000005  5.7925100000000000  7.6132900000000001
  9.5676400000000008 12.7889999999999997  6.9222000000000001
 13.6654000000000000 13.8246000000000002  3.5589000000000000
  4.8879700000000001  7.0716700000000001  0.8456560000000000
 11.1100999999999992  3.8685600000000000  0.1253610000000000
 12.1050000000000004  0.1872130000000000  0.3475960000000000
  7.5834599999999996  4.8221499999999997  7.4197199999999999
  5.0262700000000002  1.2375000000000000 -0.0058610700000000
 13.0845000000000002 12.1576000000000004  2.0938900000000000
  3.1473100000000001 14.4085999999999999  8.1983499999999996
 10.3748000000000005  9.4229000000000003  5.2856899999999998
  4.3925599999999996 11.8236000000000008  3.2793399999999999
  1.3639900000000000  2.9220199999999998  6.0812600000000003
  3.1091899999999999  2.8949199999999999  4.5668499999999996
 13.1615000000000002  2.9938300000000000  3.1422300000000001
 11.1128000000000000  6.8926600000000002  2.2817400000000001
 13.6016999999999992  3.5165999999999999  5.2541900000000004
 11.7835000000000001  7.4108099999999997  4.4062599999999996
  4.1872199999999999  6.0238899999999997  2.8026200000000001
 11.6465999999999994  7.8693299999999997  0.1618990000000000
  8.9969199999999994  6.2263200000000003  6.3965899999999998
 13.8774999999999995 14.1570000000000000  5.7882199999999999
  8.3914899999999992  8.4723900000000008  6.3185799999999999
  0.4659730000000000  2.5419900000000002  8.8998299999999997
  0.7163230000000000  2.9609100000000002  2.1250100000000001
