 H Si 
 1.0000000000000000
    14.5353600448027152    0.0000000000000000    0.0000000000000000
     0.0000000000000000   14.5353600448027152    0.0000000000000000
     0.0000000000000000    0.0000000000000000   26.8445487000000007
 H   Si 
   5  73
Cartesian
  2.1034452099999998  4.8240792099999998 14.7681419700000003
 11.1810172199999993  2.4898266499999999 12.0174847899999993
 13.4772782000000007 11.0961201299999992 14.4452167100000004
 14.0019078199999996  5.3299313699999997 15.9335359499999996
  8.2797538100000008  1.9370810199999999  9.5189594100000008
 12.1485257400000002  6.9746556899999996 11.2567559700000004
  8.9406624699999995 13.1392699400000001 15.3021577799999999
  7.6221228099999996 11.2474935699999996 16.1108124599999982
  1.6015145300000000  4.5178064500000001 13.3938985499999994
 13.4097463200000000 12.0576081399999993 11.2743507199999993
 14.0584269600000002  6.5816587499999999 15.1300013599999996
  8.8036311800000000  1.1647803299999999 12.4997688799999995
 12.4490270899999995  1.1643044300000001 16.4567418200000013
  0.3058118700000000  8.4104088099999998 16.2938057500000006
  1.1169805200000000 12.9759449999999994 15.9917603300000000
  9.9683218100000008 14.0345609400000004 11.3261159199999994
  8.4434316299999992 10.2866614500000004 11.4098556000000002
 10.6011883400000002 11.6656969200000002 14.2914714099999998
 12.0815526099999992  8.6710346499999993 12.8828933699999997
 -0.2019005500000000  7.8340858000000004 11.2156314300000002
 13.0059975899999998  4.8807044900000003 11.6114860499999999
 10.3093283800000002  6.3741257600000001 15.5874261300000008
 11.8318326000000003  3.4486902499999998 12.9688239000000003
  7.3080450600000004  5.7868722799999999 10.9823190600000000
  5.8488673599999998  7.4448800799999999 11.6324948399999997
  6.0379526300000004  8.5540693000000001 16.6727594699999990
  0.9322610700000000  2.2434655499999998 13.4850989699999992
  9.0718221499999991  2.3796597300000002 14.4851810899999993
  2.5868726899999999 12.2903198600000003 10.6062031700000006
  1.3511753900000001 12.5950173700000008 13.6589951900000006
  3.0541823699999999 13.6361781499999992 14.8335539999999995
  6.2387143600000003  3.6499848899999998 11.0834712999999994
 10.0327805199999993  9.7528116899999997 13.0587248400000000
  5.2582948099999998  4.1977763399999999 13.1150733600000002
  7.8886165999999998 13.7154551399999995 13.2994413199999997
 12.0985932900000002  7.7960304799999998 15.1096889000000001
 12.5273812800000002 11.3842440600000003 15.5764047800000007
  5.8027463399999997 13.9625269299999992 14.2760131999999995
  3.2700532899999999  1.5355696900000000 10.9226384099999994
  6.6450869299999997  5.5096537300000001 14.5004059499999993
  4.2001016199999999 -0.6016448300000000 10.7873245699999991
  1.3745020600000000 10.3236444100000000 13.2537012599999997
  7.4218358100000001  1.6747406300000001 10.7074861000000006
 10.4144220099999991 15.1276974800000001 15.3548215900000002
  5.0236866200000003  6.8869023699999996 15.4366938499999993
  6.7010133800000000  9.3597561999999996 12.6260941599999992
  0.7678447200000000 13.4507176899999994 11.5948699499999996
 14.4799342499999995  6.0931720800000004 12.8790964300000006
 13.9073716399999991  9.9434857900000004 12.1805722099999993
  3.7176990700000001  8.1746982199999998 14.0405067799999994
  6.8886878100000004  0.0172936600000000 16.2713588099999988
 10.0337088199999993  4.5104163599999998 14.0574558100000004
 12.3151625899999999 14.5090504500000002 14.0310681899999992
  6.9469192900000003  4.3614602600000003 16.5832325900000015
  2.9224702699999998 10.0899951699999999 11.5149620099999996
  6.4795241299999997 -0.4878946300000000 10.3928841900000002
  7.4058139699999996  9.2418690899999998 14.9401938600000008
  2.9791832199999999 11.3698201900000004 16.2855181000000009
  6.9694755900000001  2.2274487000000001 15.5822642400000007
  4.0493053100000003  3.6440522000000000 10.2691504100000000
  2.1186817300000000  9.3813833599999992 15.2404042799999999
  9.1270043199999993  7.8907850799999997 14.2192068999999996
  4.7644822500000004 11.8894660099999996 14.5964708800000000
 11.6093244500000008 12.8953237999999999 12.5098212699999998
 13.3585757600000008 13.5412795799999994 15.9456632200000001
  8.4592064699999998  5.9634416999999997 13.0373116200000005
  2.8784757999999999  1.4318126099999999 14.6266379200000003
 13.2410014599999997  2.0888563900000001 14.3158836399999991
  3.3679191400000001  5.0768183799999997 12.0178550099999999
 12.7722700299999996  9.3776567199999992 16.7217875499999984
  8.1103075400000009 12.5952181000000003 11.2795207099999999
  4.2280612800000004  0.4937378100000000 12.9254298300000006
  4.6097104499999997  4.7503011099999997 16.4015561800000000
  5.3329117899999998 10.7922326300000009 16.6388725700000002
  3.5210783800000001  7.4659696200000001 11.8042857399999992
  4.6134538899999997 10.1659238199999997 13.0587796300000001
  4.7626931199999998  2.8397784399999999 14.9192011999999998
  1.0072106900000000  1.2384493200000000 11.3783685299999995
