 H Si 
 1.0000000000000000
    14.5261084410637018    0.0000000000000000    0.0000000000000000
     0.0000000000000000   14.5261084410637018    0.0000000000000000
     0.0000000000000000    0.0000000000000000   10.9211136782134233
 H   Si 
   4  92
Cartesian
  1.9297700000000000  8.6545699999999997  1.9546800000000000
 14.1183999999999994  8.8660499999999995 -0.2220500000000000
 10.5300999999999991  0.1373040000000000  6.9226500000000000
  1.3661799999999999  6.7959699999999996 10.1342999999999996
  3.5509599999999999 11.7162000000000006  2.2004700000000001
  6.0822599999999998  0.7622050000000000  3.2296000000000000
 13.4725000000000001 12.0305000000000000  0.3459530000000000
  8.7907700000000002  0.8880710000000001  0.7771930000000000
  6.1892100000000001  9.4631799999999995 10.7537000000000003
  1.2767200000000001  0.8657660000000000  4.3722799999999999
 11.0792999999999999 12.1181000000000001  0.9193960000000000
  7.6605100000000004 12.1181999999999999  2.1412100000000001
  1.3465900000000000  9.8523800000000001  6.4689399999999999
  4.8888499999999997  8.9005399999999995  7.0597399999999997
  9.5524600000000000  0.4870050000000000  9.5436700000000005
 10.8773000000000000  4.4394999999999998  9.7650199999999998
  6.3414200000000003  4.1304800000000004  1.7357100000000001
 12.9153000000000002 13.7424999999999997  9.6313499999999994
 14.0622000000000007  1.5569500000000001  6.0563000000000002
  9.5047400000000000  5.2675200000000002  0.6253360000000000
  1.7491699999999999  4.1115500000000003  3.8254700000000001
 11.9681999999999995  1.4963500000000001  1.6257299999999999
  5.6279199999999996 10.2151999999999994  4.9325700000000001
  8.0872899999999994  3.2455200000000000  0.3489410000000000
 11.3126999999999995  2.7624599999999999  3.4490500000000002
  2.9732200000000000  9.4533600000000000  1.1772199999999999
 11.2643000000000004  4.7599099999999996  6.4841800000000003
  2.7646600000000001  8.7206700000000001  7.9512799999999997
  5.1289699999999998  8.0516000000000005  1.3730100000000001
  6.4986899999999999  8.6409099999999999  3.2995199999999998
  7.5716700000000001  0.6863230000000000  8.3245100000000001
  8.3553300000000004  9.0809499999999996 10.7995999999999999
  6.0302499999999997  6.5978000000000003  6.9628699999999997
 14.0884000000000000 12.9115000000000002  7.7714100000000004
  9.1210100000000001 12.4693000000000005  5.9688100000000004
  8.4236699999999995  9.9550199999999993  8.4618599999999997
  3.1694599999999999  1.3985300000000001  1.0847000000000000
  2.8591600000000001 12.3996999999999993  9.6456900000000001
  3.9086099999999999  1.7759100000000001  9.5107800000000005
 10.8414000000000001 14.0030000000000001  5.6729500000000002
  0.5840109999999999 13.1499000000000006  4.4288200000000000
  7.2864300000000002 14.0928000000000004  6.3449900000000001
  5.0479500000000002  3.5459800000000001  8.5500000000000007
  9.9633099999999999  4.8010299999999999  2.9893700000000001
  8.1529199999999999  6.3743499999999997  8.2161100000000005
  2.0055900000000002  6.5161899999999999  8.8641400000000008
  4.2884599999999997 12.0835000000000008  4.4388800000000002
  0.0286179000000000 10.1845999999999997 10.2171000000000003
 14.0993999999999993  1.0949700000000000  1.3228100000000000
  3.7527800000000000  3.2732899999999998  4.7570800000000002
  2.2268300000000001 11.8480000000000008  5.6525600000000003
  1.9468399999999999 13.4025999999999996  7.6260000000000003
  2.4384600000000001 13.4269999999999996  0.9580770000000000
  7.5919499999999998  3.4416099999999998  5.5728000000000000
  4.8177500000000002  2.5165400000000000  2.4896699999999998
  5.3217999999999996  4.2823099999999998  6.2921300000000002
  8.7796900000000004  9.5006699999999995  3.3981400000000002
 10.9939000000000000  6.1610199999999997  4.5946199999999999
  7.8222600000000000 11.3236000000000008  4.4325099999999997
 13.2439000000000000 13.7254000000000005  5.7805400000000002
  2.4626500000000000  1.0612999999999999  7.7449700000000004
  9.9990199999999998  0.8896140000000000  3.9689800000000002
 10.4639000000000006 14.3360000000000003  2.0131000000000001
 10.6961999999999993 12.9353999999999996  9.6422600000000003
 11.8742000000000001  9.8478200000000005  7.2884799999999998
  2.2883700000000000 10.1054999999999993 10.0007000000000001
  0.1369980000000000  4.5505500000000003  5.5435299999999996
  7.4480100000000000  6.8373499999999998  4.5077999999999996
  7.6658099999999996  4.6159299999999996  3.6371600000000002
  0.2186690000000000 13.3498000000000001  1.8373100000000000
  3.3363700000000001  1.1804800000000000  5.5662900000000004
  9.2479999999999993  4.2534299999999998  7.7285700000000004
  9.3045700000000000 10.6539000000000001  1.4098400000000000
  7.8908100000000001  6.7424999999999997 10.6572999999999993
  7.8399400000000004  1.3296600000000001  4.7532800000000002
  5.2438000000000002 14.2042999999999999  5.2226699999999999
 13.4314000000000000  1.4525399999999999  9.8215800000000009
 11.3437000000000001  7.8507499999999997  8.4377700000000004
 12.4260000000000002  5.6839399999999998  8.4579900000000006
  5.7181899999999999 11.4890000000000008  1.0417200000000000
  0.5119950000000000  2.2661099999999998  8.1066800000000008
  5.2684600000000001 12.2990999999999993  9.7936399999999999
 11.2675000000000001  2.2569599999999999 10.1969999999999992
 10.0986999999999991 11.3945000000000007  7.8757599999999996
  1.2814099999999999  2.2499199999999999  2.3850199999999999
  7.4910100000000002  3.0087700000000002  9.0404999999999998
  6.9211099999999997 14.2710000000000008  1.3687600000000000
  5.9708699999999997  0.0066622700000000  9.8683399999999999
  4.4904599999999997  5.8632799999999996  9.2782499999999999
  5.9419300000000002 10.3900000000000006  8.5003299999999999
 13.9941999999999993 10.4970999999999997  7.9186199999999998
  5.8084100000000003  6.0637999999999996  0.4107090000000000
  0.1099450000000000  4.7958200000000000  7.8468999999999998
  9.5143699999999995  7.8632299999999997  4.9989999999999997
  9.3619100000000000  8.0972000000000008  7.4187900000000004
 12.7438000000000002  3.2394200000000000  5.4015800000000000
