 H Si 
 1.0000000000000000
    14.5388263617727471    0.0000000000000000    0.0000000000000000
     0.0000000000000000   14.5388263617727471    0.0000000000000000
     0.0000000000000000    0.0000000000000000   28.9670848999999997
 H   Si 
   9  94
Cartesian
  5.8392900000000001  1.7669999999999999 14.3245149000000005
 10.1228999999999996  5.0099200000000002 18.4070849000000010
  3.6552899999999999  7.6723600000000003 14.0830248999999998
  2.9438800000000001  8.1914999999999996 10.7638049000000002
  3.7707099999999998  8.1806999999999999 13.5127348999999999
  9.9820799999999998  1.6190199999999999 12.4401148999999993
  0.1182630000000000 -0.0916157000000000 13.9726049000000003
 13.5130999999999997  4.5483099999999999 10.1417449000000008
 13.4328000000000003  2.6537899999999999 16.3136149000000010
  2.6142200000000000  7.0470100000000002 16.0455949000000011
 11.9121000000000006  9.4532100000000003 10.5115958999999997
  0.6374690000000000  5.0467199999999997 18.9604849000000009
  0.4169600000000000  7.9125300000000003 14.0188048999999992
  3.6347200000000002 13.9887999999999995 13.4397049000000006
  6.7233200000000002  7.9939900000000002 13.1692648999999999
 10.0693000000000001  2.1509700000000000 17.2188648999999998
 14.2644000000000002  9.4907599999999999 10.3944168999999995
 12.8053000000000008 13.6249000000000002 18.9670848999999997
  8.4451599999999996 12.6679999999999993 15.2292149000000006
 14.0740999999999996  5.2806499999999996 15.8269449000000009
  5.5606999999999998  2.6453600000000002 18.6385849000000015
 13.8369000000000000  2.5203799999999998 13.4288149000000008
  5.1848200000000002 10.7606999999999999 17.7251748999999990
  1.8129000000000000  4.9873799999999999 15.2276249000000004
  2.0409700000000002 12.3202999999999996 18.9199948999999989
  0.6066870000000000  0.3602540000000000 17.0258949000000008
  2.6913999999999998 10.6295999999999999 12.6024148999999994
  1.9896400000000001  3.1878400000000000 18.8650349000000013
 14.0296000000000003  8.0744900000000008 18.3039048999999991
 14.0071999999999992 11.2769999999999992 13.9102449000000004
  8.2639600000000009  0.4386800000000000 14.7077349000000002
  6.2284800000000002  5.4335199999999997 15.7005949000000005
  6.6505299999999998  2.2161599999999999 11.5822149000000003
 11.1850000000000005 13.6140000000000008 13.1479248999999996
  3.4394900000000002  3.0839400000000001 15.4275848999999994
 11.4681999999999995  7.9237599999999997 16.8220549000000013
  3.7746800000000000 12.8173999999999992 15.5462649000000006
  4.8508100000000001  7.0366900000000001 16.8457349000000001
  5.9939600000000004  5.7233299999999998 13.4669649000000007
  4.1015199999999998  4.9539999999999997 12.2773049000000007
 14.4527000000000001  6.0162199999999997 12.6209649000000006
  6.2657299999999996  1.3839800000000000 15.6194848999999998
  4.2662199999999997  0.6816940000000000 18.3112549000000016
  3.7826399999999998 10.5823000000000000 14.6500249000000000
  8.4863999999999997  5.2339500000000001 15.7575649000000002
  2.3884500000000002  2.9186600000000000 10.3529768999999998
  5.8159500000000000 13.1549999999999994 12.5194349000000003
  9.5716400000000004  7.2639199999999997 15.6261849000000002
 13.0701000000000001 13.8882999999999992 11.5945449000000007
 13.8682999999999996  1.4713600000000000 15.4287148999999992
  9.9906699999999997  6.6197600000000003 11.7050649000000000
  5.9017200000000001  8.9456100000000003 11.2304548999999998
  7.4671799999999999 13.1134000000000004 17.1968148999999997
  5.3805600000000000 14.1047999999999991 16.6060648999999998
  1.8374600000000001  4.7147100000000002 12.8427948999999995
  9.1555000000000000  4.1831899999999997 17.8039148999999988
 12.1053999999999995  6.5861700000000001 18.6345948999999997
  7.2347999999999999 10.6991999999999994 10.5968488999999995
  7.0899500000000000 11.6160999999999994 13.6768748999999996
  8.0400799999999997  5.7381000000000002 10.5539529000000005
  0.3475530000000000 10.9779000000000000 16.1142049000000007
 10.6922999999999995  2.5471599999999999 11.4746149000000006
 13.6387999999999998  6.0050800000000004 10.4327219000000007
  3.2385899999999999  1.7482700000000000 13.5008049000000003
  7.4937899999999997  0.1987180000000000 12.4329049000000005
 10.5404000000000000  9.7650900000000007 12.6492149000000005
  9.1311000000000000  7.9520799999999996 13.3780248999999998
 13.6903000000000006  7.6428799999999999 15.8949849000000007
 12.8306000000000004  1.7382200000000001 11.3710948999999992
  3.0910500000000001 10.1267999999999994 18.4547148999999990
 11.8399999999999999  0.2327180000000000 15.0891449000000009
  4.5840800000000002  5.4864499999999996 10.0103641999999997
  6.1758499999999996  9.0167800000000007 16.8127348999999988
 13.0513999999999992  4.7519200000000001 13.8002149000000003
 13.8877000000000006  1.1139800000000000 18.8511449000000013
  0.5365450000000000  9.7405299999999997 12.5985148999999996
  2.2842799999999999 12.8224999999999998 11.9187048999999998
 12.2014999999999993  2.5688100000000000 18.1691548999999988
 10.9619999999999997 10.2075999999999993 17.5394849000000015
  5.9363299999999999  9.6682600000000001 14.5326149000000004
 11.3538999999999994 13.6265999999999998 17.1351748999999991
 10.5458999999999996 11.7948000000000004 15.8856748999999997
  3.6259299999999999  9.4638500000000008 10.8492768999999996
  2.6054200000000001  1.5792299999999999 17.0488649000000017
 13.0924999999999994  4.6650999999999998 17.7921349000000006
  8.7671399999999995 11.2642000000000007 12.2624449000000002
  5.4514699999999996  3.3062399999999998 16.3676148999999995
  6.0261899999999997 12.5654000000000003 10.0000000000000000
 13.4441000000000006 10.4122000000000003 17.7843848999999992
  1.6320300000000001 12.8825000000000003 16.6282649000000013
  9.1731599999999993  3.9287200000000002 14.0324749000000004
  4.3322399999999996  2.5657600000000000 11.5798048999999992
 10.9802000000000000  4.7572200000000002 12.7751348999999994
 10.1132000000000009  1.9108300000000000 14.8815048999999995
  9.1972799999999992 14.4741000000000000 17.9239949000000003
 11.6569000000000003 11.4747000000000003 13.7449749000000008
  8.5127900000000007  8.5783100000000001 17.1256549000000007
  7.5718600000000000  4.1213600000000001 12.3731548999999994
  9.3474199999999996 13.4969999999999999 11.7484049000000006
  2.3153899999999998  9.5140200000000004 16.0924648999999995
  1.3195399999999999  2.5463100000000001 12.3605049000000005
  0.3255040000000000 13.2998999999999992 13.0301148999999992
  1.5401400000000001  6.9686599999999999 18.2091649000000011
