 H Si 
 1.0000000000000000
    14.5365156674783709    0.0000000000000000    0.0000000000000000
     0.0000000000000000   14.5365156674783709    0.0000000000000000
     0.0000000000000000    0.0000000000000000   26.0100818000000018
 H   Si 
   4  67
Cartesian
 12.1437487999999991  4.5127396900000001  9.3720409199999999
  2.4652017599999998  8.1265371900000005 10.9280623099999996
 15.7567725500000009 11.4416089000000003 10.9057830199999994
 11.8805755699999995  9.6237317000000004 12.9189831000000002
  9.6063411500000004  8.2888433399999997 14.4653717099999994
 12.0506957400000001 13.5242232900000001 15.6815999099999992
 11.9881352799999998  4.3772116199999997 10.8359077300000006
 14.0227217999999993  4.4217732500000002 11.9267216499999993
 14.2314383499999995 11.3013854699999996 13.8038080599999997
  1.5557530100000001  4.0729372499999998 10.8927375800000004
 11.8550918799999998 14.8212028999999994 11.2171257700000009
 11.0299721300000009  4.9143254799999996 14.6445690299999995
  9.7284447400000005  1.5649923100000001 13.1746717100000001
  6.8046578400000000  6.6488876200000000 12.6155640200000008
  6.6467700199999999 10.4926544499999999 11.9943556299999994
  3.6288049899999999  5.1529675099999999 10.9401977800000001
  3.6918040500000000  4.9119359100000004 14.4416917900000001
  7.2472422400000003 -0.2374820800000000 10.3639370399999997
  8.7435563700000003  3.8672515700000001 11.2951231300000003
 13.7456668499999992  2.6354275100000000 13.5138380199999997
  9.8871786299999993  7.8428795400000002 12.1170910400000000
  5.0718784200000000 14.6421964599999992 13.2676304700000003
  2.4349873999999998  8.4362632299999998 15.0364583799999991
  8.3369347499999993  0.8554081500000000 15.4386671799999995
  8.8728984400000002  4.8885139200000003 15.3069097400000000
  4.1086532900000003 12.8466993400000007 11.9891227100000002
  1.4756348399999999 14.6629916999999992 12.0637904999999996
 10.5864917500000004 10.9752106699999992 10.6372415300000007
  8.1195556199999999  2.9088735500000000 14.3262996600000001
  0.5933227599999999  3.1164259200000002 15.2789286700000009
  2.2427565399999998 13.0612046100000008 10.5754926999999999
 14.3045115099999993  6.5559985400000000 12.9184120700000005
 10.9165044400000006 12.0238370900000007 14.2680220500000008
 10.7050307500000006  2.4971307899999999 11.2595967600000009
 12.3270353700000008 10.1767995199999994 14.3727221200000006
  5.2240548699999998  4.9091572000000001 12.6611585099999999
  5.3142966500000002  5.0697494900000004 16.1042581600000005
  7.2058791900000001 13.8227613500000004 13.9939096500000009
  5.8546768199999999  7.2768673000000001 15.9586646299999995
  1.9537333699999999 13.8991099400000007 14.3178275999999993
 14.0171095500000007  8.2924047900000009 11.2617668900000005
  5.3570278699999996  8.4935322800000002 12.3603843100000006
  7.7728671299999998  6.8384777600000000 14.7747473899999999
  8.9204145100000005 10.0002885999999993 11.9318115200000001
 11.7856752700000005  9.0101617500000000 11.3699629899999994
  6.0138886200000004 12.3435555200000007 10.8243307499999997
  3.2683429099999999 11.9258907199999999 13.9845845900000008
  6.8119892000000002  3.1857866499999998 12.4339250700000008
 11.6106680600000001  2.7489740399999998 14.3832151600000007
  4.6688195800000001  8.8104208899999996 14.6715397400000001
  8.5810439899999995  6.1669193900000003 11.1748509100000000
  2.4620653300000002  2.2758524499999999 11.9770631499999993
 13.7587827100000002  0.4940600800000000 12.5372481699999998
  0.1643420100000000  5.3336496499999999 15.7139333299999997
  3.6525673900000002  0.8265296300000000 15.0358716700000006
  3.8264129300000000  7.5132070300000002 10.8185461299999996
  9.0373478899999995 10.5975777000000004 14.2779560799999992
 12.8057092699999995  6.3891035000000000 14.7815435300000004
  0.5207320900000000 10.3192695400000005 11.8305306500000000
  1.7509284400000000 10.2036944700000003 13.7979428300000002
  6.8894983800000000 11.5022972699999997 14.1839307300000002
  5.8440522499999998  1.3552166999999999 11.4381764500000003
  8.6824404400000006 -0.3880241600000000 12.1987513500000002
 10.6875243300000005 12.9144424099999995 12.0120521799999995
  4.2026854000000000  2.8014215800000000 10.5014692499999995
  2.6849980499999999  2.8130717500000002 14.3035329499999992
 11.6847473300000004  8.2941508000000006 15.5843460799999995
  1.7343532800000001  6.3637398899999997 14.3531122900000003
  4.9609805299999996 11.0360037700000007 15.3608029599999991
 10.6985751400000009  0.8221994900000000 15.2614757700000006
 14.0853495800000008 13.5812148599999993 14.3946370699999999
