 H Si 
 1.0000000000000000
    14.5353600448027152    0.0000000000000000    0.0000000000000000
     0.0000000000000000   14.5353600448027152    0.0000000000000000
     0.0000000000000000    0.0000000000000000   26.8445487000000007
 H   Si 
   5  73
Cartesian
  1.8411299999999999  4.6084800000000001 14.6756686999999992
 11.1435999999999993  1.7266999999999999 12.4545686999999994
 13.6156000000000006 10.9258000000000006 14.2650787000000001
 14.1163000000000007  4.8205400000000003 15.4555387000000000
  9.6228700000000007  3.4407899999999998 11.2364487000000004
 11.4626999999999999  6.2310600000000003 10.8711126999999994
  9.0304300000000008 12.7224000000000004 14.8049686999999999
  8.0588800000000003 11.5777999999999999 16.6080886999999997
  1.6102799999999999  4.2018000000000004 13.1503887000000006
 13.0527999999999995 12.7939000000000007 10.7886936999999996
 13.7995000000000001  6.0550300000000004 14.6396887000000007
  8.7735299999999992  1.1337900000000001 12.8890186999999994
 13.3180999999999994  2.2829899999999999 16.8445487000000007
  0.4485900000000000  7.6382500000000002 15.8251986999999996
  1.6322600000000000 13.0117999999999991 16.5646087000000009
 10.1737000000000002 14.2668999999999997 11.6193387000000001
  8.5791500000000003 10.4799000000000007 11.0677386999999996
 10.8036999999999992 11.2494999999999994 14.1747786999999992
 11.6735000000000007  8.0749300000000002 12.5159786999999998
  0.1289700000000000  7.3024500000000003 10.9718987000000006
 12.7495999999999992  4.2243599999999999 11.5225186999999991
 10.7057000000000002  5.4591700000000003 15.8882686999999994
 11.7139000000000006  2.9752500000000000 13.0582487000000000
  7.7208399999999999  6.1765400000000001 11.3506987000000006
  5.9499100000000000  7.6755500000000003 11.0221087000000004
  5.7384700000000004  8.8602399999999992 15.7487787000000008
  0.9165090000000000  1.9746999999999999 13.2673386999999998
  9.5459200000000006  1.9745900000000001 14.9271686999999993
  4.0925599999999998 12.8613000000000000 10.3805616999999994
  1.3404700000000001 12.4114000000000004 12.5718586999999999
  2.5486000000000000 13.4170999999999996 14.4656786999999998
  6.6685100000000004  4.1488699999999996 10.8759736999999994
  9.9089799999999997  9.4400600000000008 12.8524387000000004
  5.4491899999999998  3.7689200000000000 12.8763486999999994
  7.5761399999999997 13.6905999999999999 13.3591587000000001
 11.6799999999999997  7.3107699999999998 14.8673886999999993
 11.1867999999999999 10.8294999999999995 16.4548586999999991
  5.7101899999999999 14.3754000000000008 14.5273287000000000
  2.7757499999999999  1.9692900000000000 10.0000000000000000
  6.3975799999999996  5.1574900000000001 14.5668187000000007
  4.5131399999999999  0.6125250000000000 10.9407607000000002
  0.2060830000000000 10.5657999999999994 13.4764786999999995
  8.4493799999999997  2.3270700000000000 10.9442157000000009
 10.4261999999999997 14.3984000000000005 15.6920087000000006
  4.7389999999999999  6.9061100000000000 14.9272186999999992
  6.2574600000000000  9.9459099999999996 11.1065886999999996
  0.6463760000000000 13.8077000000000005 10.8515946999999997
 14.3993000000000002  5.5679999999999996 12.3683387000000007
 13.6506000000000007  9.2471999999999994 11.7431987000000007
  3.4817200000000001  8.6617599999999992 13.7136487000000002
  6.4976599999999998  0.5833680000000000 16.6317887000000013
 10.0320999999999998  4.1840999999999999 14.1111787000000000
 12.5574999999999992 13.9848999999999997 14.7969687000000008
  7.0401499999999997  4.4508299999999998 16.6517386999999992
  3.1934600000000000 11.2565000000000008 11.6733787000000007
  6.6402900000000002  0.9775480000000000 10.0804966999999994
  8.0470299999999995  9.1342400000000001 16.2082386999999990
  2.3523999999999998 10.5877999999999997 16.7774086999999987
  8.0413300000000003  2.4426700000000001 16.7035787000000013
  3.4790100000000002  4.1012700000000004 10.2462347000000005
  1.5670299999999999  9.4274400000000007 14.9869187000000004
  9.1771799999999999  8.0463600000000000 14.4681387000000008
  4.4966100000000004 12.2792999999999992 14.4996586999999995
 11.8277000000000001 12.8731000000000009 12.8631586999999996
 13.8588000000000005 13.0922000000000001 16.5512087000000001
  8.5692599999999999  5.8539399999999997 13.5346086999999997
  2.8517500000000000  1.4763900000000001 14.2570987000000002
 13.3348999999999993  1.7659600000000000 14.3493987000000001
  3.5850399999999998  4.9573000000000000 12.3698286999999993
 13.0617999999999999  8.4623299999999997 16.4827987000000000
  8.4318200000000001 12.6285000000000007 11.4808687000000003
  4.7527999999999997  1.4208700000000001 13.1254387000000001
  3.5567400000000000  5.3641100000000002 16.4003386999999989
  4.5388999999999999 10.7348999999999997 16.2588086999999994
  3.8190200000000001  7.1904800000000000 11.8336386999999998
  5.0599600000000002 10.4186999999999994 13.1137487000000004
  3.1630500000000001  2.8766200000000000 16.1904786999999999
  0.8103230000000000  1.4780500000000001 10.9937787000000000
