 H Si 
 1.0000000000000000
    14.5664975875394926    0.0000000000000000    0.0000000000000000
     0.0000000000000000   14.5664975875394926    0.0000000000000000
     0.0000000000000000    0.0000000000000000   26.0329814000000006
 H   Si 
  20  61
Cartesian
 14.1599448900000002 12.7208861399999993  9.7857029099999995
 13.2787798000000006  3.5990196399999999 10.5000951800000006
 12.2286865500000008  0.1741703500000000 13.9422140399999996
 10.9850880100000001  2.4823316900000001 10.3104436800000006
  3.5795926100000002  2.4909389000000002 11.7067286100000008
  6.7201424899999997  1.2162790800000001 10.6015455400000000
 12.9318521499999992  4.0551205200000000 11.0714421000000005
  0.5442152200000000  1.5774158700000001 11.0832848199999994
 11.4715831000000001  0.4818556100000000 11.1417817899999996
  8.5268629499999999  2.1633642800000001  9.5609982599999999
  9.1649626600000005  2.2840503600000002  9.9142234200000008
  7.6738416400000000  2.9135388099999999 11.9929752799999996
 11.5942996300000001  2.7490431100000001  9.9813164899999993
  5.0950494700000002  3.7389580900000001  9.7517267299999997
  9.6787734099999998  3.1582612000000001 11.7105613999999996
  1.3759124500000000  4.6046732700000002  9.8876334200000002
  6.9963743699999998  5.1491857699999999 10.7051019800000002
  5.6736324800000002  3.4689469000000002 10.1294527100000007
  1.5914860600000000  3.5225655200000001 13.6415889799999999
 12.9832061400000001  1.7485802100000001 12.1491996400000009
 -0.1863034900000000  1.2855464000000001 12.3361143400000000
  0.0893725400000000  7.5744312599999999 10.0221894400000000
  3.1920787700000002  8.1426863800000007 12.6995532999999998
  4.6826361199999997  2.7383948500000002 12.6840999599999993
 10.5060129000000000 11.7259016400000000 14.3576647499999996
 12.2953124599999999 -0.1702271900000000 15.4115131900000009
  8.8813492800000002 11.1832442600000004 12.7971801000000003
  5.1716727799999997  9.2412107199999998 12.2101970800000004
  4.0882864600000000 11.2791314800000002 11.9105093300000000
 13.5587987699999992  3.3589960300000001 15.2690766700000005
  6.1461199400000002 11.6493499299999996 15.0761074700000002
  4.6764864900000003  7.9614179399999996 14.8928310300000000
  4.7419149000000003  5.0517985599999999 13.0408431900000004
 11.0311367800000006  7.0820139099999997 11.4443732199999992
 14.3530124899999993  8.2790052400000000 13.2626001999999996
 11.9147325100000003  2.0465368000000002 16.0516015500000009
 12.7460746399999998 10.7208190000000005 11.8700257600000008
 12.6418582500000003 10.8636870699999992 14.2551242200000008
 12.9300679600000006  8.3991011800000006 11.4169556399999994
 13.1554449800000004  5.3841153000000004 14.3011813100000005
  4.1699250799999996 14.0406809100000007 13.1501374400000000
 10.8227343800000000 12.0660252799999999 11.9211779000000000
  4.3661949299999998  1.3629301700000001 14.5534728999999992
  7.2695075999999998  5.0956872000000004 15.4053239299999998
  0.7343909400000000  6.3213480300000002 14.0868292900000007
  8.2999743800000001  8.9685534699999998 13.1259238200000006
 10.3114732000000000 14.2900984399999995 11.6533354300000003
 13.9428487000000008 12.7134188699999999 14.9162001300000000
  1.4643472099999999  9.8907728000000006 13.1423364300000003
  1.0979720799999999  5.6879094600000002 10.8496120900000008
  7.3572267399999998  0.2753753300000000 13.6145296600000005
  3.9782804999999999 11.9068770300000004 14.2286008800000001
  9.9748082999999994  7.3925116299999996 13.5195896599999994
  2.0254507600000000 13.6423924499999991 13.9434236600000006
  2.5581553299999999  5.9029442500000000 12.6413152400000008
  1.9336099600000001  8.6887537399999992 10.7354204400000004
  1.7607078000000000 11.4049951000000007 15.0131880800000008
  0.7729496500000000  2.3803308500000000 14.1758722800000001
  7.0302124700000004  8.1981343500000001 11.2790971599999992
  6.3278261499999999  9.4652892600000005 14.2844587799999996
  2.6160657199999999  9.1167518100000002 15.1489133200000001
  5.4236795400000002 13.0994053400000006 11.3921519399999998
  9.6262103000000003  0.3520475700000000 13.7983074999999999
  0.0181193100000000 13.5880064300000001 12.8226243699999998
  2.1912063599999998  0.9371545400000000 15.3657497599999999
  9.9648719700000008  2.4460262600000000 14.7483289200000005
 11.9401373199999998  5.1175708599999998 12.3215111499999992
  1.9392454900000000 10.9423370599999998 11.0729913100000008
  6.4382988699999997  1.0225256899999999 15.6180501199999995
 10.1158487800000003 13.5641103399999992 15.6423236600000006
  6.7007939299999997  1.7975922099999999 11.9643462100000004
 13.1543626699999994  8.7929201199999998 15.1921514900000005
 11.6582226700000007  7.0434921399999997 15.1794192999999993
 10.0573528999999997  3.9115341799999999 12.9323561500000004
  7.0198473699999999 12.5999860199999993 13.0861024199999996
 14.4847025699999996 12.0764615499999994 11.0773695500000002
  0.7058351500000000  7.8760864899999996 15.8210509199999994
  5.0036889000000002  5.6666292100000000 15.2698490899999992
  6.7224262499999998  5.9617851000000002 11.9249561300000000
  8.4745085499999995  5.5715502099999998 13.4664862299999992
  7.7747998999999997  2.8955558199999998 15.5111353399999992
