 H Si 
 1.0000000000000000
    14.5422910266661845    0.0000000000000000    0.0000000000000000
     0.0000000000000000   14.5422910266661845    0.0000000000000000
     0.0000000000000000    0.0000000000000000   11.0393132695849463
 H   Si 
  13  90
Cartesian
  4.3367800000000001 12.9080999999999992  1.8105000000000000
  7.1690899999999997  2.7728899999999999  6.2959300000000002
  5.5218499999999997  1.1358900000000001  7.0650000000000004
  9.2877500000000008  1.9113199999999999  8.0292399999999997
  6.6481000000000003  3.0467599999999999  9.2327899999999996
 12.2276000000000007 14.2158999999999995  2.1434600000000001
 10.2628000000000004 13.0963999999999992  0.1258900000000000
  5.1172000000000004  0.6200920000000000 10.8665000000000003
 11.3297000000000008  1.2851100000000000  3.7644700000000002
  3.1796000000000002 12.5359999999999996  9.4549900000000004
  9.7988700000000009 12.2476000000000003  5.0207800000000002
  8.2532099999999993  3.0457900000000002  1.9560700000000000
 11.9232999999999993 13.6631999999999998  7.2510199999999996
 14.1361000000000008  1.9227200000000000 10.2284000000000006
  8.6507000000000005  7.7788500000000003  8.0596099999999993
 12.1096000000000004  7.9922000000000004  6.1527099999999999
  9.4202200000000005  6.5325800000000003 10.0667000000000009
  0.7783250000000000  7.3620599999999996  3.8941499999999998
  9.5652200000000001  9.9402899999999992  1.0228900000000001
  4.6585299999999998  7.3890000000000002  0.9108260000000000
 13.4568999999999992  4.6952800000000003  6.3987900000000000
  7.2774700000000001 10.2889999999999997  9.0266099999999998
 13.5286000000000008  7.9208499999999997  8.0661900000000006
  1.3644300000000000  1.8983500000000000  2.5719400000000001
 10.1036999999999999  6.6320899999999998  6.6970400000000003
  2.8383300000000000  0.6606190000000000  8.5330899999999996
  3.9656799999999999  3.4889100000000002 10.6064000000000007
  0.7991650000000000 10.3961000000000006  6.0425800000000001
 12.2653999999999996  4.8258299999999998  9.8998500000000007
  0.0502444000000000 14.3054000000000006  0.1223480000000000
 11.2685999999999993  3.4783599999999999  6.0325600000000001
  2.2995899999999998 13.2678999999999991  4.5523600000000002
 12.1934000000000005  2.3580500000000000  4.1125499999999997
  3.8790800000000001  4.1710099999999999  3.4802700000000000
  1.2579300000000000  5.3860299999999999  0.8412250000000000
  2.5477200000000000  3.9635799999999999  8.8253799999999991
  0.6736750000000000  9.7842500000000001  3.7305299999999999
  4.4475899999999999  8.2057500000000001  9.8015699999999999
  1.3463099999999999  9.1166999999999998  0.2249610000000000
  2.2199700000000000  8.0310400000000008  9.2704400000000007
  3.7873700000000001  1.9966600000000001  2.8543699999999999
  9.5128799999999991 10.7518999999999991  5.3088699999999998
  1.1982500000000000  8.3743999999999996  7.2305999999999999
 12.6760000000000002 11.5120000000000005  1.4989399999999999
 13.3589000000000002  6.4812200000000004  4.8457800000000004
 10.4054000000000002  5.0456099999999999  8.5828299999999995
 11.9178999999999995  2.5145900000000001  9.7470700000000008
 14.2919999999999998  1.3645200000000000  4.4619600000000004
  2.6209899999999999  4.4882999999999997  5.4561700000000002
  0.3128050000000000  7.4386799999999997  1.4827100000000000
 11.1071000000000009  3.6293799999999998  0.5700860000000000
  1.0962600000000000  2.2240600000000001  8.3796700000000008
  3.7530500000000000  1.0487299999999999 10.6486999999999998
  6.5580299999999996 10.4245999999999999  2.1133600000000001
 12.5838999999999999  3.7745000000000002  2.3694899999999999
  3.5432500000000000  5.2953700000000001  1.4141200000000000
  6.1296900000000001  4.7947699999999998  3.9732699999999999
  2.7196400000000001 11.8192000000000004  6.3528399999999996
  4.1296099999999996  1.4522500000000000  6.8434400000000002
  9.1208500000000008  4.1935599999999997  1.5670100000000000
 12.4193999999999996  9.2702899999999993  9.5849100000000007
  4.1028700000000002  3.8377900000000000  7.0723099999999999
  5.4655399999999998  9.2610799999999998  8.0574800000000000
  8.4923099999999998  9.8464700000000001  3.3002099999999999
  2.0961699999999999 12.8744999999999994  8.4678100000000001
  6.6501000000000001  7.4435399999999996  6.9288400000000001
  6.0237800000000004  5.2764699999999998  7.5857000000000001
 10.9281000000000006  8.1037800000000004  0.0312597000000000
  2.3548600000000000  6.8300599999999996  5.5288399999999998
  4.3945200000000000  9.2738600000000009  2.4734500000000001
 13.8167000000000009  5.7265300000000003  8.4386500000000009
  2.3524600000000002 10.3887000000000000  2.1072000000000002
 14.2722999999999995 13.5702999999999996  4.4388500000000004
 11.0359999999999996 11.0160999999999998  8.6747399999999999
  0.6808120000000000  3.0042900000000001  6.0127800000000002
  6.0933700000000002  4.2637900000000002  9.5555400000000006
  7.6632999999999996  5.2970199999999998  0.0596892000000000
  7.5134699999999999  9.5627200000000006  0.2201080000000000
  7.2687600000000003  4.2170600000000000  5.9148399999999999
 12.7870000000000008  9.7032200000000000  2.9936300000000000
  1.4099999999999999  5.7586500000000003  9.4877699999999994
 10.3825000000000003  2.7292000000000001  8.0974699999999995
 11.7167999999999992  9.9864099999999993  5.0426000000000002
  3.5584300000000000  0.6498470000000000  4.7485099999999996
  9.6564999999999994  5.5861599999999996  3.2636099999999999
 12.0410000000000004  5.8807700000000001  3.1731600000000002
 14.3271999999999995 12.6195000000000004  9.5342599999999997
 14.0444999999999993 10.5000000000000000 10.8978000000000002
  9.5009800000000002  4.8993099999999998  5.3749200000000004
  2.8435700000000002 12.6898000000000000  2.2241499999999998
  6.2681600000000000  6.9823599999999999  4.7721000000000000
 12.5318000000000005  7.7381000000000002  1.7126100000000000
  6.9522199999999996  7.2162400000000000  1.1535800000000000
 13.3270000000000000 11.5211000000000006  5.7411000000000003
 10.8179999999999996 11.7271000000000001  0.1079840000000000
  7.9333400000000003  7.5357200000000004  3.2180399999999998
  4.6757600000000004 10.2706000000000000  6.1881399999999998
 12.5687999999999995 12.4846000000000004  7.8444799999999999
 13.4853000000000005 13.5487000000000002  2.1937400000000000
 14.4990000000000006  3.3999999999999999  1.2335900000000000
  2.0926399999999998  0.1463490000000000  1.0833999999999999
  4.3271300000000004  8.4113699999999998  4.7576000000000001
  9.2354599999999998 10.1417000000000002  7.5905399999999998
