 H Si 
 1.0000000000000000
    14.5894768954547285    0.0000000000000000    0.0000000000000000
     0.0000000000000000   14.5894768954547285    0.0000000000000000
     0.0000000000000000    0.0000000000000000   26.1238677999999993
 H   Si 
  50  53
Cartesian
 13.4264066999999994  7.9722653799999996 13.7089855499999995
  6.5013380800000000 11.9479783099999999 10.2510972299999992
 10.1764634899999997 12.2433520500000004 14.9899797299999999
  7.2079368300000004 -0.3488041600000000 10.4833036400000008
 11.9340018099999998  2.6801380600000000 12.9273479099999999
  9.7671624799999996 13.8846412299999997 11.0185083400000003
 11.5547232999999991  9.9243187299999995 10.0518277800000000
 10.3208574599999992  2.1701757200000000 14.4077080500000001
 10.2966547500000001  7.7969865499999997 10.7981145600000001
  8.6881088700000006  0.8123732200000000 12.9110505500000006
  9.4334532499999995  3.4558241700000001 12.4147145600000002
 11.3931463199999996  3.3023471299999998 15.9881812500000002
 10.0582902300000008 -0.2883488900000000 10.4741796500000000
  0.0948218500000000  5.6294909999999998 11.3410537700000003
 10.9075473699999996  4.2992741199999998 14.0371551199999995
 12.5193305699999993  6.0209879099999997 10.2510631599999993
 14.1665832500000004  6.1516548599999998 14.2934287500000003
 10.8671816799999998  6.4535265400000004 13.6664536299999995
  9.5895140100000003  7.5811739600000001 10.8728911999999998
 12.9119330100000003  5.1087281800000000 12.4438101700000008
 10.6360183100000008 11.8595335300000002 15.4413275799999994
 10.9024388000000005  8.9941493799999996 16.4141131599999994
 16.3651487600000003  2.2827299600000002  8.7390497200000006
 10.4072321199999998 11.5218781400000001 10.4658958000000002
 13.0626516099999996  3.7761581700000000 14.5871382100000009
  9.9400957800000000  9.7271471799999993 12.2577402299999996
  8.0467728800000007  9.3389204499999998 11.1440779499999998
 12.8723953200000008 10.1630445199999997 15.0929224499999997
 12.5787211299999999  5.8548411299999996 15.5450051100000000
  8.3241978999999997  6.0706101600000002 10.3639602100000001
  9.8526454700000006 11.7218441299999991 10.9416938199999993
 13.6138568899999992 10.2240818099999995 15.1462898399999997
 11.2906310800000007 12.8024011699999996 12.2850485000000003
  7.8323672799999997  2.4961053799999999 10.9301684800000007
 12.4572086599999992  1.6286880200000000 14.8649255399999998
 11.3511959699999991  9.2099918299999999 10.0361236999999992
 14.2427595599999997  3.5654290500000001 12.6861406399999996
  7.6540996899999998 13.4212723199999999 16.5545465400000005
  0.6994909300000000  5.2675589000000000 11.0910416999999999
  9.1294028399999991  0.7234006700000000 16.7219874200000014
 11.6312200400000005 11.0049690099999999 13.3431235000000008
 10.7432961599999999  5.6678237899999999 11.7570177099999995
 10.5092978600000002 14.3418694200000001 14.0049579600000005
 11.8138325099999992  0.5435804200000000 12.2002645500000000
 14.0217586599999997  8.6062356999999992  9.6304128099999993
 13.6693787499999999  7.9910556499999998 16.3339704400000016
 14.4339485900000000  3.1103955800000000  9.9272649499999996
  1.0595788900000001  8.9605886199999993 13.3766673699999998
 11.8892708799999998  6.0009339600000002 15.7895258799999993
 13.4219327499999999  7.9279195900000001 15.6364457300000002
  3.7343340600000001 10.1997481400000005 14.1849477900000007
  2.5091767800000002  6.6835810100000002 13.2041974999999994
  8.5181591500000007 12.3074927499999998 12.7053491100000002
  3.8026164200000001  5.0789797400000003 12.1007605500000004
  9.0437804699999997 14.2665881199999998 13.8057659899999994
 13.7647153899999992 13.4125828100000000 16.2903083299999984
  5.2668893600000004  1.0989931300000000 13.2273288699999991
  5.2240704400000002  6.2397808899999996 10.6715563899999992
  0.8516052100000000  3.0293878099999998 13.3861996600000008
  4.0500209399999996  1.1755250399999999 15.2344820500000004
  7.7288596099999998  6.9453352900000001 13.3551811800000007
  3.4024532500000002  9.9359024999999992 11.8638515200000008
 13.8720646999999992 13.5464848799999995 13.9750823400000002
 15.7015589500000008  2.3480392900000000 10.0520344700000006
  5.9866246800000003  6.5898503399999999 14.8962270300000004
  1.3475082300000001 12.6921149799999995 15.7727721699999996
  5.1925483999999997 13.3761008500000003 12.7824678400000007
  0.9685973000000000  5.9575484999999997 14.7548518299999998
  8.0008935099999992  3.4658647800000000 12.0356676199999999
  0.6545631000000000  0.7303179500000000 13.3532923100000005
 13.6731444999999994 13.4195731800000004 10.2424405200000006
  0.0986143400000000 11.4551254900000004 10.9705605800000008
 12.6577634999999997  8.2418931999999998 12.4697158199999993
  3.4528485199999999  3.3608034700000000 15.3258989799999998
  6.8647081200000004 13.0005945199999999 11.2219704700000005
  4.9936993699999999  4.5937406000000003 14.1019181899999992
  6.5922967300000002  2.9234597899999999 13.7871178299999997
  2.4676064000000002 14.2632020399999995 14.4045410100000009
  8.0848920000000000  0.0810107400000000 15.8850307300000004
  7.8535104100000002  9.5114610499999994 15.8154757600000000
 14.2210329899999994  9.1566022300000007 10.9890327600000006
  2.5304458599999999  3.1674153399999998 11.7073379699999993
  6.3230360299999999  1.5533224600000000 15.6561920499999996
  5.1001336400000001  8.3352747699999998 11.7233576999999993
 12.3945173700000009 13.7727163099999999 12.1712076200000006
  2.9663306600000001 13.9183779500000000 12.0397418500000004
 10.0075677800000005  8.9006847100000002 15.2317255399999993
  7.2140023900000001  9.0197283899999992 12.3318750999999995
  0.7647572500000001  0.2490758600000000 11.0387024999999994
  5.3325076500000002 11.8498278399999997 14.5410468399999999
  9.6971172600000006  6.7100317900000004 14.5589727599999996
 12.1497197200000002  6.1033891799999997 11.6741409500000000
  3.9864943799999999  1.3796104700000000 11.3270437400000006
  7.2832849099999999 10.7333343899999996 13.9236693500000008
 11.6860049799999999  2.9690144699999999 14.4753092900000002
  1.2402747100000000  3.8195619299999999 15.5216789100000003
 11.0179632499999993  9.6666419200000000 13.2596366999999997
  4.3630107499999999  7.9464140800000003 13.9786630200000008
  7.3809111800000000  5.6425823399999997 11.4318905999999991
  0.8660019000000000 11.9401353700000001 13.1588640500000000
  2.3884755700000002 11.8711042700000000 11.0696643600000009
  1.5983617400000001  8.4683088299999998 12.0313801300000005
  1.5153678200000000 10.5214585599999992 14.8903734199999995
