 H Si 
 1.0000000000000000
    14.5307357155388193    0.0000000000000000    0.0000000000000000
     0.0000000000000000   14.5307357155388193    0.0000000000000000
     0.0000000000000000    0.0000000000000000   25.4701939999999958
 H   Si 
   3  58
Cartesian
  4.9820330000000004  6.0318854000000002 15.7633540300000003
 10.0702385000000003 14.1634061700000000 11.4434138300000008
 12.5213520700000007 -0.0023795500000000 15.7488167899999993
  5.0026083699999999  2.1629617099999998 10.4401824199999993
  0.2270603000000000  7.0355237600000002 11.4872030400000007
  4.7623267100000000  9.3161213000000007 12.1598090400000007
  8.8138583799999992 11.4402509499999994 10.8460989399999992
  1.4738350600000001 10.3367113300000000 13.6980366599999996
  1.6221384999999999  0.1161097500000000 10.8174006200000008
  1.7694709500000001  8.2962840300000007 14.6954447500000001
  9.9817270300000001  4.2105271899999996 15.0010266800000007
  1.0190460200000000 13.5127678899999992 15.2541742300000003
 12.1225620200000002  4.4060462400000002 12.0335347600000002
  0.1712209500000000  3.8158952099999999 12.2395892499999999
  8.9155824199999998  6.6203037599999996 12.9407510800000001
  3.2088967700000000  9.0525783700000009 10.4480910300000005
 11.0319673999999992  5.8234969599999999 13.5696644299999996
 10.3805214600000006  1.9880513399999999 14.2658119899999996
  5.4593327800000004  6.5218938499999997 14.4448150700000006
  8.1405313199999991  1.4307101200000001 14.6344073600000009
  5.8835908000000003 10.7427612600000000 13.5539103599999997
  7.3973254300000004  0.1317004600000000 12.8216057400000008
  1.0892304300000000  4.7430077300000004 14.1914487900000008
  9.1696860999999998 13.2646550899999998 12.2336017300000002
 11.6793583499999993  0.0804752300000000 14.5340580700000004
 10.4255234800000007  9.7942087699999991 11.1341455299999996
  1.5739677599999999  1.0345920099999999 14.2550093499999999
 11.0645101799999992  2.3372368600000000 11.9923643200000001
  6.0729711599999998  4.6968968999999996 13.1379288400000007
  4.3539678500000001  3.3273435400000002 12.3767187599999993
  7.6130856800000002  7.4513750099999996 14.7363315799999999
 12.8886490699999996 12.9139779400000005 11.4149014700000002
  2.5711411499999999  6.9337004799999997 11.4340708200000005
  0.3022701900000000  1.4770026999999999 12.3216519099999999
  6.9813587600000000 10.0766411700000003 11.5235775900000004
  7.7281112600000004  5.1927408899999996 11.5344952000000003
 12.2315163600000005 11.4992300499999995 13.1778438799999993
  3.6489702899999998  7.6729073200000002 13.4298731000000000
  3.9169204999999998  0.2790167800000000 11.4167495300000006
 12.4379654300000002  7.6013062900000001 14.1067354399999996
  5.0407742799999999 12.4310658800000002 14.8591875200000008
 14.4261867800000001 12.1376667299999994 13.6701687100000004
  2.4957036900000000  4.7433352700000002 12.2793943999999993
 13.7393394700000009  5.1152993699999998 10.5558239199999999
  0.1183252700000000  6.8823746999999997 13.8386404200000008
 12.6856809199999994  0.5123867500000000 12.4219579899999992
  2.2186580000000000 13.6633864700000007 12.9831169099999997
 12.3175890999999993  9.3139383700000007 12.4097301000000009
  8.0475770900000008  3.5869893300000002 13.7275859699999998
  1.4037732500000000 10.3031650300000006 11.3403499100000005
  3.8280710800000000  1.4161579200000001 13.6741319499999996
  7.1195088899999996  1.6437166800000000 11.1285501999999994
  0.6892920700000000 12.5608308500000003 11.3328354499999993
  8.5747255199999994 11.7391608499999993 15.3218297000000003
  8.7782370200000006  8.8331674400000004 12.3331257700000005
 14.0263741300000007  9.1010501000000001 10.8757786599999999
  8.8171618499999997  3.1158630199999999 11.4466164900000003
  2.7752392499999998 12.0522349200000001 14.5958565799999995
  7.8585316900000004  9.7590473299999996 14.2971432600000004
  5.1877647900000001 14.0817072400000001 13.2602776000000002
 10.4158155299999997 12.6399904799999998 14.1137165200000005
