 H Si 
 1.0000000000000000
    14.5802938633580741    0.0000000000000000    0.0000000000000000
     0.0000000000000000   14.5802938633580741    0.0000000000000000
     0.0000000000000000    0.0000000000000000   27.5008170000000050
 H   Si 
   9  82
Cartesian
  9.0126200000000001 12.9528999999999996 11.1963969999999993
  9.1301600000000001  0.8407950000000000 10.9013570000000009
  7.2696899999999998 10.9083000000000006 10.4870190000000001
  7.6710500000000001 11.0239999999999991 11.1059070000000002
  7.0813499999999996 14.0787999999999993 10.7400090000000006
  8.8060700000000001 13.9527999999999999 12.8902370000000008
  9.6182099999999995  2.7918900000000000 10.9925270000000008
  5.3953100000000003 14.0617999999999999 16.2283970000000011
  9.4785699999999995  5.3319400000000003 10.0652878999999995
 12.1524000000000001  0.5817700000000000 14.5981769999999997
  2.5870899999999999  9.9243400000000008 11.4662269999999999
  1.4159700000000000  5.4999399999999996 15.0993870000000001
 10.3948999999999998  6.6179600000000001 16.8676470000000016
 10.2660999999999998 12.2611000000000008 10.9915970000000005
 10.9629999999999992  7.2649400000000002 12.9377469999999999
  7.8303799999999999  1.8447199999999999 14.8557170000000003
 12.9085999999999999  7.5639700000000003 14.1823270000000008
  3.2183700000000002  0.7806710000000000 12.0337370000000004
  2.4409200000000002  3.8269199999999999 14.0529069999999994
  8.1508800000000008 13.0263000000000009 13.8016570000000005
  0.7101330000000000  9.1038899999999998 17.2044069999999998
 10.6141000000000005  0.2677820000000000 16.5014170000000000
  4.8756500000000003 10.2067999999999994 11.0108370000000004
  6.3584699999999996  2.4832000000000001 11.4360370000000007
  6.6908599999999998 13.6639999999999997 16.8068570000000008
  9.2656600000000005  3.5674899999999998 14.0910869999999999
 14.5343999999999998 12.8245000000000005 16.4713269999999987
 13.8106000000000009 10.8717000000000006 17.2606369999999991
  7.7047499999999998  5.2745699999999998 13.8682070000000000
  4.7277500000000003  5.8655700000000000 11.6719170000000005
  8.4837799999999994  7.7588699999999999 16.1083570000000016
 13.8594000000000008  2.2933200000000000 11.7421869999999995
  5.8395299999999999  2.1025200000000002 13.6670770000000008
  3.2085400000000002 13.2035000000000000 11.3057669999999995
 13.9122000000000003  4.6678100000000002 12.3196270000000005
 12.6341000000000001 11.1130999999999993 13.9970370000000006
 13.2456999999999994  9.1974900000000002 10.8918300000000006
 11.8148999999999997 13.9451000000000001 10.7781199999999995
  5.6651499999999997  9.4228400000000008 13.0180869999999995
  1.1578700000000000  1.8306300000000000 14.5982470000000006
 13.9588999999999999  9.2702799999999996 13.1027369999999994
  0.1950420000000000 13.0940999999999992 12.6613670000000003
 10.5853999999999999  3.1382200000000000 12.2646370000000005
 13.8177000000000003  5.4518599999999999 14.3878869999999992
  8.4533600000000000 14.3818999999999999 15.6872270000000000
  7.7759099999999997  8.2504399999999993 10.3762019999999993
 13.4337999999999997 13.2026000000000003 14.5153970000000001
 13.7238000000000007  2.1111900000000001 15.4824870000000008
  5.2643599999999999 10.9664000000000001 14.5649770000000007
  1.3748600000000000  8.0916300000000003 12.6447170000000000
  4.8242200000000004  7.1825599999999996 13.6037569999999999
  4.6103300000000003  3.6393499999999999 14.7865169999999999
  8.6611700000000003 10.6973000000000003 13.7125570000000003
  1.0081100000000001  0.7972330000000000 12.5931370000000005
 11.0129000000000001  8.9826499999999996 11.3739270000000001
  8.8002400000000005  7.2454999999999998 13.8109470000000005
  2.2080199999999999  3.3712200000000001 10.0000000000000000
  2.7339099999999998  4.6158599999999996 11.8800969999999992
  4.5031400000000001  0.2917390000000000 13.9627370000000006
  2.6246600000000000  7.3678499999999998 14.3173469999999998
 12.1265000000000001  7.9429499999999997 16.2172869999999989
  6.5518400000000003 11.3933000000000000 16.4732769999999995
 11.6961999999999993  5.1761600000000003 11.8006770000000003
  5.7583299999999999  5.7237900000000002 15.0984870000000004
  1.0672900000000001  6.1830900000000000 11.3591970000000000
  4.7973999999999997  2.9835400000000001 17.0300370000000001
  5.8578099999999997 13.0007000000000001 13.3869170000000004
  8.0690000000000008  5.8843100000000002 10.2551210000000008
  6.5734899999999996  6.8905500000000002 16.9644869999999983
  7.7305599999999997  0.7665050000000000 10.4081290000000006
  4.1558299999999999  2.1405099999999999 10.4513920000000002
  3.3721199999999998  1.2893699999999999 17.5008170000000014
  8.3765699999999992 10.1379999999999999 15.9931470000000004
  7.8114299999999997  4.8229300000000004 16.3565569999999987
 13.8620999999999999 12.9686000000000003 10.5463559999999994
 10.6812000000000005 10.8160000000000007 12.5806670000000000
  7.1473699999999996  2.5959300000000001 16.9195670000000007
 12.6967999999999996  4.1804600000000001 15.8012969999999999
  2.8964099999999999  0.3022530000000000 15.6351469999999999
  4.5724600000000004  8.5070800000000002 17.2834670000000017
 10.3389000000000006  4.2681100000000001 16.0888470000000012
  6.7715100000000001  4.7155300000000002 11.6803369999999997
  7.7893900000000000  8.7892700000000001 12.6532470000000004
  2.2474599999999998 12.7004999999999999 16.3715270000000004
  3.0042800000000001 11.1819000000000006 14.7933070000000004
  5.3123600000000000 12.5111000000000008 11.1530670000000001
  2.7338100000000001  9.0477799999999995 15.8871669999999998
  2.1364899999999998 11.7334999999999994 12.8049070000000000
  1.3597699999999999  4.7550299999999996 17.3669469999999997
 11.9390999999999998  1.1896000000000000 12.2592870000000005
 11.8259000000000007 10.2946000000000009 16.2377070000000003
