Si H 
 1.0000000000000000
    20.0000000000000000    0.0000000000000000    0.0000000000000000
     0.0000000000000000   20.0000000000000000    0.0000000000000000
     0.0000000000000000    0.0000000000000000   20.0000000000000000
 Si  H  
   1   3
Cartesian
 10.0000000000000000 10.0000000000000000 10.0792990000000007
 10.0000000000000000 11.4132800000000003  9.6299390000000002
 11.2239369999999994  9.2933599999999998  9.6299390000000002
  8.7760630000000006  9.2933599999999998  9.6299390000000002
