 H Si 
 1.0000000000000000
    14.5445998864130264    0.0000000000000000    0.0000000000000000
     0.0000000000000000   14.5445998864130264    0.0000000000000000
     0.0000000000000000    0.0000000000000000    8.5973331350629021
 H   Si 
   8  67
Cartesian
  0.7262650000000000  2.3115600000000001  3.0730800000000000
  8.0489499999999996  2.4335700000000000  8.2310900000000000
  8.5184999999999995 -0.0486289000000000  4.5387199999999996
  3.1401500000000002  3.4752500000000000  7.9512999999999998
  2.0703000000000000 13.9420000000000002  7.2627199999999998
  2.1164900000000002  8.3629999999999995  7.4677899999999999
  9.3284500000000001  1.4252000000000000  3.1032199999999999
  0.9737270000000000  2.4497700000000000  7.4676299999999998
 12.5480000000000000  3.0785200000000001  6.2382700000000000
  0.2296770000000000  3.6054599999999999  2.9867900000000001
  8.8103499999999997 13.0510000000000002  4.4328399999999997
 12.2436000000000007 13.1341000000000001  5.0394699999999997
 11.8110999999999997 10.9504000000000001  1.9515300000000000
 10.4504000000000001  9.2358300000000000  5.7866799999999996
  2.7753399999999999  6.3516800000000000  0.9530220000000000
 11.8872000000000000  5.0915699999999999  0.9503430000000000
  5.2227600000000001  8.6106099999999994  8.0305700000000009
  6.2170600000000000 10.3095999999999997  2.3646600000000002
 10.9556000000000004 13.0198000000000000  3.2346800000000000
  4.2091500000000002 10.4240999999999993  3.4560300000000002
  0.1507750000000000  7.0946600000000002  2.8707699999999998
  6.1458800000000000  6.7153099999999997  0.5387980000000000
  9.2593899999999998 12.5602999999999998  6.8299399999999997
  6.0098200000000004 10.7308000000000003 -0.0193265000000000
  8.1984300000000001 10.7309000000000001  7.9637200000000004
  1.3613999999999999  9.2064100000000000  5.2152900000000004
  7.1684799999999997  7.7974800000000002  5.5196699999999996
  7.4116600000000004  6.2329699999999999  7.2949900000000003
  1.5811100000000000  5.4231800000000003  3.9412699999999998
 14.4560999999999993 12.7113999999999994  4.5653800000000002
  0.5511720000000000  6.2938799999999997  0.6717790000000000
  9.5850899999999992  5.5818800000000000  6.4584000000000001
  4.9378299999999999  7.6569500000000001  5.9578400000000000
  5.3024699999999996  5.2521599999999999  4.0513300000000001
 10.8579000000000008  4.2515400000000003  2.9107599999999998
 12.0124999999999993  7.2833500000000004  0.3662880000000000
 12.8048999999999999 14.0206000000000000  8.5083500000000001
  1.2543299999999999 11.8163999999999998  0.9715760000000000
  3.5112899999999998  8.4158399999999993  4.3981399999999997
  7.2903799999999999 11.3812999999999995  4.3258799999999997
 10.3085000000000004  7.6503399999999999  7.4335800000000001
 11.2558000000000007 11.3812999999999995  6.4264500000000000
 12.9003999999999994  4.2789299999999999  4.2006800000000002
  2.9674600000000000  8.5098500000000001  0.0525035000000000
  9.6764500000000009  5.8585200000000004  4.1207900000000004
  0.8495840000000000 11.3070000000000004  6.1788200000000000
 12.0353999999999992  0.5072489999999999  6.4110300000000002
  7.2498800000000001  8.1390399999999996  2.0471599999999999
 10.2065000000000001  2.0711100000000000  2.1443900000000000
 10.1521000000000008 14.5581999999999994  7.8435899999999998
  1.1976700000000000  5.4088000000000003  6.3225100000000003
  7.4692400000000001  6.5177800000000001  3.6977899999999999
  0.7463970000000000  9.3186999999999998  3.0074700000000001
 11.0800000000000001  7.8127000000000004  3.9120800000000000
  5.1971600000000002  5.3619800000000000  6.3377400000000002
 10.8720999999999997  3.9580199999999999  7.7456500000000004
 14.0663999999999998 11.3699999999999992  2.6377299999999999
 11.0327999999999999  8.7817600000000002  1.7686900000000001
 14.0256000000000007  4.2707899999999999  0.8281360000000000
 14.3916000000000004 10.6350999999999996  8.1902799999999996
 13.0340000000000007  6.6574600000000004  4.3886799999999999
  5.0624000000000002 11.8917999999999999  5.0946899999999999
  0.0150374000000000  3.5428999999999999  7.2492599999999996
  2.4990600000000001  9.9974299999999996  1.8305499999999999
 11.2773000000000003  0.1107610000000000  1.4316800000000001
  3.2068800000000000  4.9875299999999996  7.5808299999999997
  9.1136900000000001  8.7950099999999996  0.6265920000000000
  4.5383199999999997 11.9978999999999996  7.2587799999999998
 13.9697999999999993  8.1128800000000005  8.1919699999999995
  8.1639800000000005  9.8481900000000007  5.8120000000000003
  9.4395900000000008  2.1963900000000001  8.4341799999999996
 12.3100000000000005 11.6588999999999992  8.3956199999999992
  3.4585800000000000  6.3683800000000002  3.1427900000000002
  0.0102623000000000  7.4678500000000003  6.1590900000000000
  2.2368399999999999 12.3777000000000008  7.5610600000000003
