 H Si 
 1.0000000000000000
    14.5399814335374096    0.0000000000000000    0.0000000000000000
     0.0000000000000000   14.5399814335374096    0.0000000000000000
     0.0000000000000000    0.0000000000000000   25.5067134000000024
 H   Si 
  12  58
Cartesian
  8.1216299999999997  1.5431500000000000 10.7969913999999996
  3.4659200000000001 12.5634999999999994 11.8332733999999995
  1.3412500000000001  2.8780299999999999 13.0008634000000001
  4.9540100000000002  9.2222100000000005 10.3299593999999999
 10.7843000000000000  2.0569999999999999 11.8363834000000008
  2.2061600000000001  3.3460600000000000 10.3409233999999994
 11.9901999999999997  5.0419600000000004 12.5332433999999999
  7.6040799999999997  8.9389599999999998 15.2678533999999999
  3.4634499999999999  5.5786899999999999 14.6750033999999996
  2.9912299999999998  0.7223060000000000 13.7824933999999999
 14.3699999999999992  4.7668600000000003 12.2671434000000001
  3.6871900000000002 10.4979999999999993 11.6022134000000001
  0.6372450000000000 13.9743999999999993 12.6924233999999991
 11.5547000000000004 13.6936000000000000 15.2509633999999998
  1.1076600000000001  7.0317100000000003 10.3106743999999999
  3.2582900000000001  4.4280799999999996 10.1259554000000005
 10.0060000000000002  6.8107100000000003 14.7373334000000007
  0.6022250000000000  7.3221900000000000 14.1945133999999999
  2.3438800000000000  7.4661200000000001 12.2890233999999996
  0.8009080000000000  5.0568700000000000 14.9478933999999999
 12.3457000000000008  1.0727700000000000 14.2145734000000008
  4.7946700000000000  1.7198599999999999 11.7994833999999997
  0.9914830000000000  0.3820770000000000 10.5651703999999995
  3.8698000000000001 12.8339999999999996 10.4196393999999994
  1.8842699999999999 14.5328999999999997 14.4167033999999994
  9.6192200000000003 13.6056000000000008 11.6172833999999998
  3.0379800000000001 12.5101999999999993 14.8329634000000006
  9.5261099999999992  4.0071399999999997 13.5976134000000002
 10.2532999999999994  1.8731599999999999 13.1718334000000006
 10.0195000000000007  6.8967900000000002 11.2736034000000007
 12.9857999999999993 11.1964000000000006 11.8925534000000006
  0.6675550000000000 11.6791000000000000 12.2809633999999992
 12.0149000000000008 13.2852999999999994 11.3106334000000004
 12.3719000000000001 11.5234000000000005 15.3737534000000000
  6.4045699999999997 11.0035000000000007 13.8094534000000007
 12.2757000000000005  7.4470999999999998 11.7398533999999994
  8.8882800000000000  0.5756950000000000 10.0000000000000000
 11.4915000000000003  5.0369500000000000 13.9564234000000003
  7.9579000000000004  3.8388900000000001 15.3787734000000000
 13.6031999999999993  1.9621299999999999 10.3026143999999995
 13.2789999999999999  0.5835730000000000 12.1882634000000003
  6.3633899999999999  9.0840999999999994 10.6991084000000001
  6.6105000000000000  7.8934499999999996 12.5023833999999994
 12.1452000000000009 10.1397999999999993 13.6794533999999999
  5.2812599999999996 13.0488999999999997 14.2700534000000001
  1.9223200000000000 10.6153999999999993 13.8821334000000007
  8.9831099999999999  4.7865399999999996 11.3752834000000007
  3.4988400000000000  5.4676799999999997 12.2021134000000000
 13.1465999999999994  4.6325099999999999 15.5067134000000006
  7.0948399999999996 11.0214999999999996 11.6918234000000005
  9.3884000000000007 11.3658999999999999 11.1095734000000004
 12.7662999999999993  9.3852399999999996 10.5641183999999999
  6.2389599999999996  0.0586392000000000 12.5947133999999998
 12.9109999999999996  7.9694599999999998 13.8788733999999998
  5.7423900000000003  5.6974799999999997 12.5573134000000000
  2.3780800000000002  3.8460800000000002 13.6612334000000004
  4.3544000000000000  2.5504400000000000 14.1320834000000009
  9.9646799999999995 10.2260000000000009 13.0120634000000006
  9.4214099999999998 13.1656999999999993 14.7234833999999992
  3.4227400000000001  9.4326500000000006 12.6569634000000004
  6.7672600000000003  4.9935999999999998 10.6011004000000000
  6.1236499999999996 13.0121000000000002 10.7886133999999991
  8.8981899999999996  8.1491399999999992 12.8948534000000006
  8.6106800000000003  0.1971950000000000 13.2854334000000005
 13.7932000000000006  5.7910700000000004 11.1030934000000006
  8.5043299999999995 11.1621000000000006 14.7062033999999997
  5.2477999999999998  8.9963800000000003 13.9310334000000005
  3.3441200000000002  0.5069090000000001 10.3291643999999998
  6.0350999999999999  4.2071100000000001 14.3211233999999994
  1.3637900000000001 11.0851000000000006 10.1181553999999991
