Si H 
 1.0000000000000000
    20.0000000000000000    0.0000000000000000    0.0000000000000000
     0.0000000000000000   20.0000000000000000    0.0000000000000000
     0.0000000000000000    0.0000000000000000   20.0000000000000000
 Si  H  
   1   2
Cartesian
 10.0000000000000000 10.0000000000000000 10.0948689999999992
 10.0000000000000000 11.2718620000000005  9.3359170000000002
 10.0000000000000000  8.7281379999999995  9.3359170000000002
