 H Si 
 1.0000000000000000
    14.5376711064440514    0.0000000000000000    0.0000000000000000
     0.0000000000000000   14.5376711064440514    0.0000000000000000
     0.0000000000000000    0.0000000000000000   28.2542529999999950
 H   Si 
   8  84
Cartesian
  6.4287400000000003  0.6509890000000000 15.8811630000000008
  3.0268299999999999  0.5230910000000000 10.0000000000000000
  6.1999300000000002 13.4945000000000004 18.0452230000000000
 14.2003000000000004  7.7997500000000004 12.3495229999999996
  3.1498300000000001  2.9171499999999999 16.4726129999999991
  5.7995000000000001  6.6212099999999996 14.5174930000000000
  9.3216999999999999  7.6902699999999999 13.3739629999999998
  8.8890700000000002 12.1171000000000006 14.1067929999999997
  5.1698599999999999 11.3262999999999998 17.1784329999999983
  1.5225800000000000  9.6037199999999991 11.8114830000000008
  9.2853800000000000  9.8312000000000008 16.1027629999999995
  6.2629200000000003  3.4610400000000001 16.3878729999999990
 10.5386000000000006  4.9127999999999998 14.4564430000000002
 13.9164999999999992  4.4529699999999997 13.3552230000000005
 11.9551999999999996  7.1251699999999998 11.8375930000000000
 14.5043000000000006  3.8144999999999998 17.1850430000000003
  0.0955047000000000  5.9863299999999997 17.8967630000000000
  8.3793500000000005  2.8954499999999999 17.2235830000000014
  1.3130599999999999 12.1486000000000001 16.9158630000000016
  8.9469999999999992  6.5710100000000002 14.3715030000000006
  1.7411399999999999  7.1676599999999997 16.7620229999999992
  2.0642499999999999 14.2908000000000008 16.0065230000000014
 11.2161000000000008  9.2160200000000003 12.6901229999999998
  5.5474699999999997 12.4915000000000003 14.9041230000000002
 10.4722000000000008  6.2034599999999998 17.3797029999999992
  8.6804199999999998  0.7372850000000000 18.2542529999999985
  6.4534500000000001  3.7609300000000001 14.0648929999999996
  4.6225500000000004  0.7020510000000000 10.5142150000000001
  0.4126900000000000  3.2028900000000000 15.0820930000000004
  3.0051399999999999  1.0688000000000000 17.8880030000000012
  4.9302799999999998  9.0205500000000001 16.5842430000000007
  6.5549200000000001  7.4771200000000002 17.3206029999999984
 11.5436999999999994 14.4914000000000005 13.4786330000000003
 14.3328000000000007 10.7446000000000002 10.6326180000000008
  7.2492099999999997  0.5683190000000000 13.0226229999999994
  1.0695600000000001  2.0759099999999999 10.9892400000000006
  3.0978599999999998  8.6858599999999999 17.9886130000000009
  4.9911700000000003  0.8863370000000000 12.8349130000000002
 11.5452999999999992  1.8415100000000000 12.2550329999999992
 14.0145000000000000 14.2307000000000006 13.4555530000000001
 12.5710999999999995  7.1559200000000001 17.3916830000000004
 -0.0077752400000000  0.8659640000000000 15.4698229999999999
 13.9169999999999998 11.9543999999999997 14.1123530000000006
 12.6809999999999992  0.6870510000000000 16.9492529999999988
  5.1353000000000000  1.6521500000000000 17.2087830000000004
  7.8444099999999999  2.8956900000000001 12.4647629999999996
  4.2937599999999998 11.8461999999999996 10.8838209999999993
  8.3155800000000006 10.7614000000000001 14.0918030000000005
  1.1444600000000000  5.4972599999999998 12.1701329999999999
  3.8496800000000002 14.0315999999999992 14.3297329999999992
  2.5057600000000000 10.8544000000000000 13.5761730000000007
  1.1585399999999999  7.6659800000000002 13.0372129999999995
  2.7622499999999999  3.8261099999999999 11.6956229999999994
  6.8609299999999998  6.0460599999999998 13.6216729999999995
  6.1156400000000000  6.1701100000000002 11.3486829999999994
  7.8026499999999999  9.0802499999999995 10.5067769999999996
  4.3007000000000000  3.0402900000000002 13.3119230000000002
  4.6738299999999997  4.4368999999999996 10.5476100000000006
  4.2555699999999996  9.4149100000000008 14.4733129999999992
  9.3919999999999995 12.1792999999999996 10.9800620000000002
  6.0788399999999996 10.5780999999999992 13.6358929999999994
  9.2849500000000003 10.1831999999999994 11.9875129999999999
 10.0928000000000004  3.7106800000000000 12.5296930000000000
  7.7452100000000002 13.8129000000000008 11.2785229999999999
 12.8510000000000009 10.9726999999999997 12.2882929999999995
 12.3259000000000007 11.1605000000000008 17.7660529999999994
 12.8824000000000005  7.9458399999999996 15.3810330000000004
  8.7758000000000003  7.5488000000000000 16.3710729999999991
  8.8357600000000005 11.3450000000000006 17.7962530000000001
 10.4532000000000007  3.9233199999999999 16.4724029999999999
 13.4838000000000005  2.9102999999999999 11.5841429999999992
 12.0239999999999991 11.7258999999999993 15.4831529999999997
 10.1645000000000003  5.7405200000000001 11.1135680000000008
  0.5445449999999999  8.3653800000000000 15.1867529999999995
  7.2236500000000001 14.0166000000000004 15.2186629999999994
  4.7152599999999998  7.9694599999999998 11.6218430000000001
 11.2637999999999998  9.6096800000000009 14.9069529999999997
  0.8414760000000000 10.7530999999999999 15.2440929999999994
  8.9482599999999994 13.4840000000000000 16.6438330000000008
 11.3843999999999994 12.7688000000000006 11.8490430000000000
  3.4572300000000000  5.7708399999999997 15.6972830000000005
  8.1800099999999993  6.8622199999999998 10.3540139999999994
  5.2420499999999999  5.4545399999999997 17.1935329999999986
 11.0800999999999998 13.8800000000000008 15.6617429999999995
  3.5506899999999999  7.2542299999999997 13.5847730000000002
  1.0720799999999999 14.3088999999999995 11.5893029999999992
  5.8310300000000002 10.0807000000000002 11.3923430000000003
 12.4550999999999998  6.2081299999999997 13.9336929999999999
  3.0528700000000000 11.0972000000000008 18.0383229999999983
  2.8559800000000002 12.8858999999999995 12.5444130000000005
 12.3210999999999995  2.9438300000000002 17.6963830000000009
  2.8157500000000000  3.6145000000000000 15.1611429999999991
