 H Si 
 1.0000000000000000
    14.5388263617727471    0.0000000000000000    0.0000000000000000
     0.0000000000000000   14.5388263617727471    0.0000000000000000
     0.0000000000000000    0.0000000000000000   28.9670848999999997
 H   Si 
   9  94
Cartesian
  5.4892266000000003  1.5010656700000000 14.4514192200000000
 10.1142021700000004  5.0564002199999996 18.8535477299999989
  3.5402863400000002  7.4864644100000000 13.7724569199999998
  2.8487595400000001  7.9799550500000000 10.4163946599999999
  3.5121461300000001  7.7473537500000003 12.9741619600000000
  9.6976843800000001  2.3921348600000001 11.0948846099999994
  0.3496953300000000 -0.1084192300000000 13.5460753999999994
 13.7143628399999997  6.0169816599999999  9.5129377500000007
 12.9656191500000002  2.2654396999999999 16.1845317699999995
  2.8880604499999998  7.2899697600000000 16.7214104799999994
 11.3612280899999991  8.5656147100000002 11.0875687400000000
  0.9064357100000000  5.0062854999999997 18.8799101799999995
  0.4499886400000000  7.9628950500000002 13.9903712200000001
  3.6982971000000000 14.0522932500000000 13.4730677900000000
  6.7286535100000000  7.9902298299999996 13.1611047699999997
 10.1861189400000001  2.1846073399999999 17.4792382500000016
 13.6101355599999998  8.8922518999999998 10.8773161799999993
 12.8231724600000003 12.8990041400000006 18.1626396399999983
  8.2307993499999998 12.5941655000000008 15.4756582599999994
 14.2293928199999993  5.1680249199999997 15.7502152700000000
  4.4167343499999996  2.4897621000000001 18.9727204299999990
 14.0697355200000001  2.5256186299999999 13.1352802400000002
  5.9014437500000003 10.9814879699999999 18.2910775699999988
  2.0772931699999999  5.2320753099999999 15.4870774499999992
  2.3805007499999999 12.8735594399999993 18.8228255799999999
  0.4575519100000000  0.3463818500000000 16.6675700400000011
  2.6298481900000001 10.5139488100000005 12.4323127000000007
  2.1468074100000001  3.1270443000000001 19.1217462599999983
 14.0791873299999999  8.1824315300000006 18.0828760200000005
 13.9455054399999998 11.4703122000000004 13.8656185999999995
  8.1844729300000001  0.4312034000000000 14.9840697499999997
  6.2387845500000001  5.3574156100000003 16.0160620999999992
  6.9667741400000001  2.3938522799999999 11.6360332700000004
 11.2353389900000007 13.5458179399999992 12.7284931100000005
  3.2365238500000002  3.1377560600000001 15.7729409300000007
 11.4918485199999996  7.6765216399999998 16.3434511700000016
  3.6569970299999999 12.7731831299999996 15.4213496899999996
  5.2335878600000001  7.2414507199999996 16.9724696500000007
  6.1643165599999996  5.7355699800000002 13.6609423999999997
  4.3531540800000004  5.0724606400000001 12.3670591000000005
 14.8614536099999999  6.1678481900000000 12.5078345599999992
  6.1942398900000004  1.3647953799999999 15.7612279700000002
  3.7460399099999999  0.2666435900000000 18.2900153199999984
  3.7273882299999999 10.5340872099999991 14.5511125499999991
  8.6027196000000004  5.1747192799999997 16.0168322100000005
  2.9997388200000001  2.2523724999999999 10.5214270100000000
  5.8225059200000002 13.4766843099999996 12.7003247100000003
  9.3587415699999994  7.3319203200000000 15.6179556999999996
 12.9823017299999997 13.8899116899999999 11.1943274499999994
 13.6280156399999992  1.2587371900000000 15.0344058599999997
 10.2416097100000005  6.6795823900000002 11.8766030699999998
  5.9827822599999996  8.4707681299999997 11.0019021499999994
  7.1407505300000000 12.8625961899999997 17.5133108399999990
  5.2588778899999999 14.0027235999999995 16.7259820700000006
  2.1997429999999998  4.9838348799999999 13.1439370100000001
  9.2203016299999998  4.2055077799999996 18.0206547599999993
 12.2465709500000006  6.6481725200000001 18.3438416599999989
  6.3871281499999997 10.7504715500000003 10.9274265899999996
  6.9926816900000004 11.6813103999999992 13.7390548700000004
  8.1470825799999993  6.0758113099999997 10.9526305399999995
  0.3730681100000000 10.9653576699999995 16.0271679999999996
 11.0479697800000007  3.0461925399999998 11.1384624300000006
 14.5760745499999995  6.8899547200000004 10.3464174300000007
  3.3474822099999999  1.8420453999999999 13.7690359600000001
  7.6492603299999997  0.4166903600000000 12.6590052600000007
 10.1461203900000001  9.9635795300000005 12.4811459199999994
  9.0768331999999994  8.0478069500000000 13.3949301599999995
 13.7335494300000001  7.4495847599999996 15.8517450100000001
 12.6963375099999993  1.5698462500000001 11.5740517000000001
  3.6315624500000001 11.1405057700000008 17.8194117100000007
 11.5691820799999991  0.2420996200000000 14.7478235499999997
  4.1192606500000002  4.3279045900000002 10.1899801399999994
  6.5097015100000002  9.2442753199999999 16.8770447099999998
 13.3753030000000006  4.6947448400000003 13.5946454299999999
 13.7678063900000005  0.4436665500000000 18.6452040100000005
  0.3565427500000000  9.7894122299999999 12.6342569000000005
  2.5552384799999999 12.8077357200000002 11.8423054499999996
 12.5249104700000000  2.3333427599999998 17.8180520000000016
 10.9741191400000009  9.8222417400000008 17.0502548500000017
  5.9659798400000001  9.7395429900000003 14.5912060399999994
 11.0958924200000002 13.4987382199999999 16.7407882800000003
 10.3627093099999996 11.5942961600000007 15.6716513499999994
  3.6932157800000001  8.6817236199999996 11.4170534200000002
  2.2035787500000001  1.7279073400000000 17.2963707400000004
 13.3938215399999994  4.5646468100000002 17.8643737400000013
  8.4232854100000001 11.4721182699999993 11.8789351300000003
  5.3321079700000000  3.2872692500000000 16.8080202099999987
  4.8494661199999998 12.5442596599999998 10.7787956600000001
 13.2525429399999997 10.5189022100000003 17.6966537200000005
  1.6026795100000000 12.8774257300000006 16.6013157199999988
  9.4550426000000005  3.9499214899999999 14.1706655399999999
  4.7436952999999997  2.7220471000000002 12.0853055900000008
 11.1745823499999997  4.7241161399999996 12.7931779700000003
  9.9600637100000000  1.8808630799999999 15.1594842300000003
  9.1336481500000009 14.5235968999999994 17.6346430900000009
 11.5451646700000001 11.4323730500000007 13.6850461800000005
  8.7888912200000000  8.7874975499999994 17.3288025800000014
  7.7545696800000004  4.3656929699999996 12.5835405700000003
  9.2242858099999996 13.6499013399999995 11.5662659699999999
  2.4414842100000000  9.6403450199999998 16.2767871000000000
  1.7136640599999999  2.7881518600000001 12.4589900700000005
  0.2685075800000000 13.2878983399999999 12.5510407199999996
  1.5880848700000001  7.2131959500000002 18.7108271100000003
