 H Si 
 1.0000000000000000
    14.5630444323130614    0.0000000000000000    0.0000000000000000
     0.0000000000000000   14.5630444323130614    0.0000000000000000
     0.0000000000000000    0.0000000000000000   27.5334320000000012
 H   Si 
  27  79
Cartesian
  1.2538700000000000 14.2484999999999999 14.2860019999999999
 12.8887000000000000 12.2469000000000001 13.4353719999999992
 14.2954000000000008 14.4055000000000000 16.3531219999999990
  4.3590900000000001 13.5251999999999999 13.7565919999999995
 13.3101000000000003 14.3382000000000005 13.3803120000000000
  6.2426599999999999  0.6495300000000001 14.5867620000000002
  1.3596999999999999 10.9352000000000000 15.9870020000000004
 11.8399000000000001 11.5744000000000007 17.0524720000000016
  3.0446900000000001 13.7576999999999998 17.4353620000000014
 13.9361999999999995 10.1877999999999993 16.3172220000000010
  3.0044499999999998  0.9580379999999999 13.7413720000000001
  2.8499500000000002 12.1879000000000008 14.3220820000000000
  5.1632600000000002 13.7629000000000001 15.7577619999999996
 13.2751999999999999 12.3676999999999992 16.1024819999999984
 12.5509000000000004 12.4029000000000007 15.9536920000000002
 -0.1603340000000000 12.1637000000000004 13.8986319999999992
  4.2332000000000001 14.2928999999999995 14.0362720000000003
  0.2587350000000000 13.8100000000000005 12.4908719999999995
  3.4166400000000001 13.0943000000000005 17.4242719999999984
 10.7378000000000000 12.2745999999999995 14.3140319999999992
  3.7696900000000002 11.2210999999999999 15.9945120000000003
  3.3469899999999999  1.8117799999999999 16.1897720000000014
  8.7932699999999997 11.0014000000000003 15.8050519999999999
  3.4792399999999999  9.3740799999999993 14.5277419999999999
  2.1111599999999999  0.3822050000000000 16.2387020000000000
  0.3765660000000000 11.7545000000000002 14.2575819999999993
 12.5930999999999997  0.2787910000000000 15.1660719999999998
  6.3197099999999997  5.4389700000000003 14.6166619999999998
  7.1924799999999998 11.7958999999999996 14.0466320000000007
  7.6358199999999998 11.6275999999999993 10.4420809999999999
  0.3772460000000000  2.6335600000000001 14.9840920000000004
  6.0244400000000002  3.4558900000000001 15.8281820000000000
 12.6387999999999998  2.3944299999999998 11.9057619999999993
 12.2668999999999997  5.5654500000000002 13.5779019999999999
 11.9778000000000002  8.0204699999999995 15.9782019999999996
 13.0676000000000005  5.8726000000000003 15.6900519999999997
  0.3171320000000000  3.3755700000000002 17.2491619999999983
  6.9010800000000003  9.4473400000000005 13.8694520000000008
  6.2459100000000003 12.6526999999999994 12.0423919999999995
  0.3379160000000000  8.4450099999999999 14.0105920000000008
  5.8275899999999998  4.2149500000000000 10.8311820000000001
  9.0806900000000006  6.1400100000000002 16.5249619999999986
 10.5690000000000008  3.1997100000000001 11.1386920000000007
  0.7760430000000000  9.5767199999999999 10.6620749999999997
  3.7647800000000000  4.6281299999999996 16.9173119999999990
  8.2769700000000004  5.9025800000000004 13.3135820000000002
  9.2701499999999992 13.0250000000000004 13.8673219999999997
  3.4473699999999998  7.5402399999999998 12.3740520000000007
  7.2890499999999996  5.9903399999999998 11.2073619999999998
  6.3102799999999997 12.8741000000000003 16.1555919999999986
  7.7687499999999998  3.2648600000000001 17.2696620000000003
  1.0205000000000000  7.2704300000000002 17.4704119999999996
  6.2967599999999999  9.0160400000000003 16.1840919999999997
  9.9559499999999996  8.7095400000000005 11.8645420000000001
  7.7973699999999999  1.2903199999999999 10.3846179999999997
 10.3508999999999993  5.2173499999999997 12.3762120000000007
  6.4768600000000003  2.0119400000000001 14.2604720000000000
  9.7640200000000004  8.0961099999999995 15.6123019999999997
  8.7759400000000003  8.0955999999999992 13.6067719999999994
 11.4946000000000002  0.5904770000000000 16.1743120000000005
  4.0363499999999997 14.5012000000000008 10.1084660000000000
 11.6922999999999995 10.0975000000000001 11.9924420000000005
  4.3857400000000002  6.4333900000000002 14.1090619999999998
  5.1168300000000002  9.2864100000000001 12.1659720000000000
  9.4363600000000005  0.1828380000000000 15.2908620000000006
  2.8886900000000000  8.6540199999999992 17.5334320000000012
  1.2885000000000000 13.1730000000000000 11.5984420000000004
 12.9413999999999998 13.1318000000000001 10.5410339999999998
  1.9476199999999999  3.7877999999999998 13.7017620000000004
 11.9286999999999992 11.1906999999999996 13.9604820000000007
  1.9148799999999999  9.2836099999999995 12.6983920000000001
  5.9388100000000001  0.2638640000000000 11.3223120000000002
  0.7991630000000000  0.3784790000000000 15.4499519999999997
  9.4427400000000006  3.9443899999999998 15.8252319999999997
  4.0979200000000002  8.2224799999999991 15.4329820000000009
  4.3734099999999998  2.3665400000000001 16.9543120000000016
  6.8780500000000000  6.7173600000000002 16.4878619999999998
  5.3726900000000004  2.3862399999999999 12.2091820000000002
 13.2971000000000004  9.6918199999999999 15.0890819999999994
  2.6205900000000000 10.8817000000000004 16.9041420000000002
  2.0991700000000000  0.6689240000000000 10.9632819999999995
  8.3762200000000000  9.6182499999999997 10.6274049999999995
  0.9343000000000000  5.1211500000000001 11.8039520000000007
  9.1837000000000000  1.6149100000000001 12.0523319999999998
 10.6015999999999995  6.9033699999999998 10.7216780000000007
  4.4034100000000000 11.4652999999999992 11.6422519999999992
 11.3919999999999995 11.5593000000000004 10.1090619999999998
 11.5898000000000003  3.0127000000000002 16.0618319999999990
 13.3818999999999999  8.7044599999999992 11.4228520000000007
  8.9196200000000001  9.8704599999999996 16.8567320000000009
 10.1492000000000004 14.0885999999999996 12.1564320000000006
  8.1431400000000007 14.0387000000000004 16.9762419999999992
  6.5310499999999996  8.1097699999999993 10.7842859999999998
  9.5119900000000008 12.9126999999999992 10.1796089999999992
  3.0032399999999999  1.9462699999999999 12.6705520000000007
  8.7886500000000005  2.2452299999999998 14.2558919999999993
 13.9131999999999998  6.7861900000000004 12.4923819999999992
  2.5568599999999999  6.2035600000000004 10.6743839999999999
  0.5554950000000000  6.6412300000000002 15.4276619999999998
 12.4263999999999992  0.0376701000000000 12.2797719999999995
  2.4049399999999999 11.7051999999999996 13.0191820000000007
 14.2687000000000008  3.4811700000000001 10.6225070000000006
  0.3116750000000000 11.7922999999999991 10.0000000000000000
  2.6119900000000000  5.4444499999999998 15.1517619999999997
 12.9069000000000003  3.3425500000000001 13.9867720000000002
 12.8505000000000003  4.3306300000000002 17.3632120000000008
