 H Si 
 1.0000000000000000
    14.5237936979055426    0.0000000000000000    0.0000000000000000
     0.0000000000000000   14.5237936979055426    0.0000000000000000
     0.0000000000000000    0.0000000000000000   28.4206329999999987
 H   Si 
   2  91
Cartesian
  4.3440500000000002 12.4405000000000001 14.6850529999999999
 13.4405999999999999  9.3747699999999998 17.6786630000000002
 13.9512999999999998  0.9787910000000000 11.9933130000000006
  8.5673300000000001  1.9875400000000001 16.6685930000000013
  1.7134600000000000  6.5015400000000003 17.0572130000000008
 12.6494999999999997  6.2619800000000003 17.6748730000000016
  9.3218599999999991  9.9204500000000007 13.3914130000000000
 11.4875000000000007 11.3505000000000003 18.2579829999999994
  8.0922199999999993 12.9341000000000008 14.1755429999999993
 13.4541000000000004  3.1741799999999998 14.8356429999999992
  2.8861800000000000  8.3439599999999992 10.0198070000000001
 13.5396999999999998 12.2959999999999994 18.0545630000000017
  1.0596300000000001  0.3209130000000000 13.4560030000000008
  7.3560499999999998  3.1332800000000001 10.4098900000000008
 10.6196999999999999  1.4044399999999999 10.8217280000000002
 12.0589999999999993  7.3526499999999997 11.4956630000000004
  8.9107900000000004 11.9710999999999999 10.5820310000000006
  7.5022200000000003  0.6430580000000000 13.0568329999999992
 14.1745999999999999  6.9488700000000003 12.3334930000000007
  6.5408600000000003  8.1033799999999996 11.3838930000000005
 10.2566000000000006 13.0746000000000002 15.2701530000000005
 14.0319000000000003 13.5785000000000000 16.0311030000000017
 10.3432999999999993  7.3364799999999999 14.7912429999999997
 11.1647999999999996 12.6567000000000007 10.4844419999999996
  5.9072300000000002  5.6569300000000000 13.7600230000000003
 11.9343000000000004 14.3506999999999998 11.9316929999999992
  2.2315900000000002  4.0811099999999998 13.0123029999999993
  5.2707199999999998  2.9248400000000001 16.7073329999999984
  2.1036000000000001  1.0972800000000000 15.4439030000000006
  0.0222908000000000  3.3346200000000001 18.4079729999999984
  1.5055300000000000  8.2046100000000006 15.4896229999999999
  3.3011200000000001 13.2174999999999994 17.7274729999999998
 13.3100000000000005 10.3855000000000004 13.8341729999999998
  8.0902300000000000 11.4886999999999997 17.7524230000000003
  4.5093800000000002  6.8745700000000003 11.0132630000000002
  2.2523300000000002  1.1594000000000000 10.0961280000000002
  6.2007899999999996  4.9230700000000001 15.8701430000000006
 11.0502000000000002  0.3005050000000000 14.1062530000000006
 11.1796000000000006 11.0860000000000003 14.5278229999999997
  5.6740899999999996  6.9824000000000002 16.8028130000000004
  7.6323800000000004  4.8051000000000004 12.1735430000000004
  7.8744300000000003 11.4421999999999997 12.5108529999999991
 11.0431000000000008  1.2621400000000000 17.2855530000000002
  5.1137800000000002  2.9489999999999998 10.0000000000000000
  0.4239790000000000  4.8177700000000003 11.7598830000000003
  1.8471800000000000 12.6600999999999999 13.2048229999999993
  3.4960800000000001  3.3546999999999998 17.9735930000000010
  3.4541400000000002 10.9468999999999994 17.1417630000000010
  6.6108799999999999  1.2182800000000000 17.6828830000000004
  0.3054460000000000 11.6890999999999998 14.8892729999999993
  8.3939100000000000  6.7898600000000000 11.4255630000000004
 10.0012000000000008 12.7829999999999995 17.5267130000000009
  6.2459100000000003  7.7757300000000003 14.6603329999999996
  3.7875000000000001  7.0322399999999998 18.1149230000000010
  4.1997900000000001 13.0922999999999998 13.2244829999999993
 12.7520000000000007  1.0421700000000000 15.4633529999999997
 14.3778000000000006 10.4275000000000002 11.5822529999999997
 12.6491000000000007 10.9883000000000006 10.0335470000000004
 11.0737000000000005  3.5190100000000002 11.7743529999999996
  9.4193200000000008  3.9310900000000002 13.3965130000000006
  1.2826299999999999  8.4845400000000009 11.6242730000000005
  1.2151600000000000 -0.0022009600000000 17.3719029999999997
  0.3888470000000000 14.2248999999999999 10.2228940000000001
  5.5712099999999998 11.4800000000000004 12.1031630000000003
 10.0801999999999996  5.1419400000000000 15.4494830000000007
  6.6570999999999998 12.3705999999999996 15.8926130000000008
  5.1162900000000002  0.6990610000000000 13.0035129999999999
  4.4074099999999996  1.1964800000000000 15.2622029999999995
  8.2961399999999994  4.4156199999999997 16.7490430000000003
  7.2370900000000002  7.6360799999999998 18.3288130000000002
 13.4101999999999997  3.2622200000000001 12.5582530000000006
  2.7539400000000001  8.2248300000000008 13.4843829999999993
 12.1494999999999997  4.4757499999999997 16.3134230000000002
 12.3163999999999998  7.7004500000000000 15.9445929999999993
  8.2913599999999992  1.0311300000000001 10.9194429999999993
 14.0146999999999995  8.1024100000000008 14.5195430000000005
  1.3986300000000000 10.2535000000000007 16.5422130000000003
  8.7592700000000008  9.2359100000000005 17.3414730000000006
  3.6133500000000001  6.0091099999999997 12.9933630000000004
 10.1426999999999996  7.9247500000000004 12.5332629999999998
  4.8836800000000000  9.5309200000000001 13.5192730000000001
  8.4856999999999996  8.6755899999999997 15.1399130000000000
  1.2460599999999999  3.2348499999999998 14.8702729999999992
 -0.0142310000000000 10.1829999999999998 18.4206329999999987
  1.3773299999999999 12.0968000000000000 11.0651829999999993
  9.0958199999999998  1.7798300000000000 14.3577729999999999
 11.4705999999999992  5.3757999999999999 10.2447940000000006
 12.1588999999999992  3.1004100000000001 18.2338130000000014
 11.0967000000000002  9.7606699999999993 16.6380330000000001
  5.2984499999999999 14.0959000000000003 16.6979830000000007
  1.4938800000000001  4.2023999999999999 16.9055630000000008
  4.9630799999999997 10.9704999999999995 15.3653030000000008
  3.5457500000000000  2.2438199999999999 11.7544930000000001
