 H Si 
 1.0000000000000000
    14.5342042383440404    0.0000000000000000    0.0000000000000000
     0.0000000000000000   14.5342042383440404    0.0000000000000000
     0.0000000000000000    0.0000000000000000   24.7518899999999995
 H   Si 
   4  53
Cartesian
  9.7610795299999999 10.8773208900000000 11.6838992699999995
  9.7215111699999994 12.6594095400000004 10.0867809299999998
 10.0694185199999993  3.0175025400000002 10.4312552600000004
  9.8562514700000001  0.2790664500000000 11.0244852299999998
  5.2598982599999999  9.0236448199999995 14.2986496899999995
 10.9420815699999991  2.2063413000000001 13.7006985700000001
 12.2595258000000005  4.6871699199999997 12.0540668199999992
 13.8522022699999994  3.0959743999999998 11.3665740199999998
  6.7162757500000003  1.2707447599999999 10.7853995600000001
  7.1353268099999996  7.5466465800000000 14.3499350299999993
  3.4241268499999999  5.7988156899999996 13.6540835699999992
 11.1436939299999995  4.6012499299999998 14.2056633899999998
  5.9732962199999999  3.9615720799999998 12.6346186100000004
  1.4557446000000001  3.9207316099999998 11.2564223699999992
  1.8313995999999999 10.6908347300000006 11.2504846100000009
  8.7196658199999995 10.9320568199999997 14.3560525699999992
  2.7280371699999999  2.3799665100000000 13.7618889600000003
  1.1252494600000000 11.3217262600000002 14.5514664099999997
  3.4914256799999999 12.2072452299999998 11.9308330700000003
  9.1831936499999998  8.6674928799999993 13.8509472999999996
  1.2711151400000000  5.4747629099999999 13.0580431699999995
 13.2496836800000004  1.8349231399999999 13.4971221799999999
  7.5807634300000002  0.4834752800000000 13.5500329799999992
 14.4580818999999998 11.7257211199999993 10.4448452500000002
 13.0109412700000000  0.9473370100000000 11.2121105500000002
  9.7394684100000006 14.7967788299999992 14.4121684200000004
  3.1322240500000000 12.5042044299999997 14.2599812200000002
 10.0935473899999995 12.7015001099999996 13.3818903299999992
  9.3481183500000000 13.4396386499999991 11.2868283900000002
  7.0649642100000003 13.6996989700000000 11.6389313699999999
  0.4631435600000000  9.7473615700000007 12.9931484400000006
  3.0059619299999998  2.1420650900000000 11.4304937700000000
  9.4253330200000001  5.6576259999999996 12.3801163499999998
  2.0664322400000001  8.3949965599999992 11.3023203399999996
 10.8504998399999995  6.9814860300000001 13.7098017199999997
 14.7451764900000004  7.4607805300000001 12.5095018800000002
 12.1560519399999993 11.7305696200000007 13.4665569499999993
 -0.1498132900000000 -0.2066882600000000 13.6785922299999996
  5.7880914600000004 11.7653295000000000 11.5012507100000008
  9.3912201199999998  9.4237817699999997 11.6122169700000004
 13.7192468299999994 12.5205345900000005 14.9297333600000002
  4.4469783200000004  3.8883586299999999 14.4033410499999999
  5.0769029000000003  2.8801779600000001 10.7546626300000003
 12.4864077699999996  7.0300865999999997 12.0040249699999997
  3.9122116500000002  7.8528336300000001 12.7365138400000006
  7.1180858699999998  6.0000556999999999 12.6043675099999994
  7.1024544000000001  9.7909506000000004 10.8246251900000008
  9.9837211099999994  3.4372863699999998 11.8650889700000004
 11.5725626500000001  8.8079986300000002 10.8206836800000001
  6.1163396499999996  8.0364861100000002 12.0039814099999997
  2.4645543299999999 14.3567907500000000 11.4980030200000005
  0.1755535500000000 13.8378477199999992 11.3644715000000005
  2.1928356600000001  0.0979945000000000 13.8708049300000003
  7.7897877400000004  2.5059616600000001 12.4362814499999992
  0.5633748400000000  3.3670881800000001 13.6757775899999992
  6.6814364099999999 10.5421854699999997 13.2501473500000007
 13.0226480700000007 10.4265857799999999 11.7821170800000008
