 H Si 
 1.0000000000000000
    14.5376711064440514    0.0000000000000000    0.0000000000000000
     0.0000000000000000   14.5376711064440514    0.0000000000000000
     0.0000000000000000    0.0000000000000000   28.2542529999999950
 H   Si 
   8  84
Cartesian
  6.3194372200000002  0.8607521000000000 15.5811975700000005
  3.3319630400000002  0.4483114400000000  9.8901401900000003
  6.1875872999999997 11.6545462099999995 18.3787285599999990
 14.1374203900000008  7.5573038099999996 12.0288335899999996
  3.1641206799999999  2.5735277600000002 16.9506172200000016
  6.1130769200000001  6.8413106800000003 15.5755636400000004
  8.9266908300000001  7.7537668999999996 13.4509580900000003
  8.6979738900000001 11.9936384999999994 14.1073149200000003
  5.2440841000000002 11.3443054799999992 17.2806227800000016
  2.1026780899999999  9.4074689899999999 11.6075126599999994
  9.3582642699999994  9.6501285899999996 15.7608516000000005
  6.3496210900000003  3.7389672100000002 16.6555222399999998
 10.2877176600000002  4.9723821800000003 14.3031640200000005
 14.4410849300000006  4.6807842400000004 13.6269382100000005
 11.7333905400000003  6.9754550899999996 11.7728464699999993
 13.8731523800000005  4.2648539799999998 17.0885306600000000
 -0.3667535600000000  6.4032443099999998 17.8936822699999993
  8.4857943700000007  3.1221188799999999 17.1848218000000017
  1.3240750800000001 12.1701869100000000 16.9150458899999983
  8.5462042300000007  6.6076504700000003 14.3365905999999992
  1.5746889500000001  7.2577399099999997 16.8419975899999983
  2.1760271800000002 14.2365467300000006 16.1122853200000016
 11.4068305599999995  9.3170268200000006 12.1631502000000005
  5.5785307399999997 12.5447545500000004 15.2997376900000006
 10.3256916000000007  6.3684542700000000 17.6593170800000010
  8.2106177999999996  0.9204530900000000 17.7409102300000008
  6.1815043300000001  3.8548930600000002 14.2987514099999995
  2.6968671400000002  0.6235008800000000 11.2172960300000000
  0.5321970499999999  3.2517953999999998 15.3909259299999999
  3.6435129800000001  1.0361302500000000 17.4329505599999983
  4.9170367600000002  9.0991994900000002 16.6554693299999990
  6.3991882699999998  7.3312298499999997 17.0078399400000002
 12.0142112099999991 14.6931449799999996 12.9369277999999994
 15.1323513799999994 11.2219095000000006 10.8921567699999997
  6.7448077099999999  0.6387537700000000 12.7270600100000006
  1.4635062400000001  2.5691746900000001 11.2986076799999999
  2.9877678300000001  8.7865272000000001 17.8902774399999984
  4.3582340999999998  0.9085896900000000 12.9764557000000007
 11.7827184299999992  2.3333581200000002 12.1245966799999998
 14.2901512299999993 14.1057318299999999 13.3813861700000007
 12.2104742700000006  7.6799502999999998 17.4267815299999995
  0.2543204200000000  0.8772030900000000 15.3021070500000000
 13.7672544600000002 11.8743862000000000 13.9687622400000002
 12.7096102200000001  0.7763995000000000 16.3980151499999991
  5.9330681900000002  1.4511176200000000 17.0883924500000006
  7.3892596099999999  2.9207066899999998 12.5158124199999996
  5.5308896200000000 11.8574819900000001 11.7058162800000005
  8.3089543900000002 10.5636523499999999 13.8695667700000005
  2.0464128900000000  5.8440622099999997 13.0735236300000004
  3.7656166899999999 13.7590670799999995 14.4692827699999995
  2.7084063899999999 10.4064893999999999 13.6036918599999996
  0.9031543400000001  7.8133138999999998 12.7315694500000003
  3.1007156500000002  4.1026466900000003 11.9271349099999995
  6.2421095600000003  6.0860342899999997 13.7124539199999997
  5.7939752699999998  6.3770032299999997 11.4230596299999991
  7.8397136400000003  9.0424848000000004 10.3873285299999996
  4.0396812799999999  3.0730833199999998 13.8085745499999994
  5.4042714900000002  4.1019679699999996 11.1509902400000005
  4.4693348500000001  9.0577926099999999 14.2567733600000004
  9.2828915799999994 12.4253833300000007 11.0834570200000009
  6.0189091699999997 10.8201423699999992 13.7632973199999995
  9.2643730000000009 10.2036553100000003 11.7339033399999995
  9.7811707099999996  3.6668984899999999 12.4095071000000008
  7.2031310499999996 13.4406373200000004 11.2614580300000000
 12.9449246099999993 11.1381649500000002 11.8727808499999998
 11.6827401900000005 10.2652723399999992 17.3402306599999996
 12.7595160900000000  7.8711648399999996 15.2041400000000007
  8.6747746200000009  7.5270970400000001 16.5168667099999986
  9.7248652999999994 11.6225884599999993 16.9984608399999999
 10.3766435799999996  4.2645560600000003 16.5691773600000012
 13.8993371900000007  3.2789725299999999 11.8666386999999993
 11.9242497400000005 11.6905706499999997 15.4079748700000003
  9.8477861000000004  5.7213990700000004 11.1970450699999997
  0.4866436300000000  8.4319127799999993 15.0204430900000006
  7.1891533299999999 14.1662935099999991 14.8488139799999992
  4.3632021300000003  8.3889866200000007 11.5841467999999992
 11.3497807000000002  9.5761963300000001 14.5026571900000008
  0.9411499800000001 10.7561905800000002 15.0553662799999994
  9.1174531600000002 13.9008858600000007 16.1544639799999992
 11.4418244399999995 12.9480873400000007 11.5337669199999997
  3.3574708000000002  5.7540311700000002 16.3585792400000010
  7.9116467000000004  6.7991202800000003 10.5847549599999997
  5.2160052700000001  5.4836488000000001 17.8091720900000006
 11.2332833599999997 14.0340956800000001 15.1275744999999997
  3.9737932599999999  6.7078075100000003 14.2931590400000008
  1.3909274800000000 13.2934085399999997 11.7819867699999996
  5.7317554299999998  9.8736582899999998 10.5313724799999999
 12.3975434500000006  6.0075584700000002 13.8236169199999992
  3.0149282199999998 11.0617778700000002 17.9227944000000008
  3.3713697499999999 12.3821506800000005 12.6678056100000003
 12.1125325799999999  2.8705051799999999 17.1785134900000003
  2.7797656800000001  3.5972876500000002 15.6931361200000001
