 H Si 
 1.0000000000000000
    14.5214782166834073    0.0000000000000000    0.0000000000000000
     0.0000000000000000   14.5214782166834073    0.0000000000000000
     0.0000000000000000    0.0000000000000000    9.9106772879020966
 H   Si 
   1  84
Cartesian
  7.4744200000000003 12.4417000000000009  5.7592999999999996
 14.0774000000000008  9.8463399999999996  7.8033900000000003
  7.4474299999999998  1.2250900000000000  0.0451594000000000
 10.7523000000000000  4.5484000000000000  3.2199200000000001
  4.5278700000000001 10.1446000000000005  4.6123000000000003
  0.8306210000000001  3.3299500000000002  7.7563399999999998
  0.0383204000000000  5.1982400000000002  1.7728699999999999
  8.7890599999999992  2.3639999999999999  5.4383900000000001
  7.1216999999999997 13.7188999999999997  6.4467600000000003
 14.3203999999999994  1.6113000000000000  4.4103599999999998
  2.1188799999999999  7.5190500000000000  3.1362500000000000
  2.1549700000000001  1.7477499999999999  1.1600699999999999
  2.4899300000000002  7.6924700000000001  6.5575000000000001
  1.6997000000000000 11.5843000000000007  6.8529099999999996
  7.6616200000000001  4.9323399999999999  6.1340500000000002
  5.3260699999999996 11.2197999999999993  2.6173700000000002
  9.7306299999999997  4.1727900000000000  6.5497199999999998
  6.5854600000000003  3.0327500000000001  5.4049899999999997
  5.3985099999999999  2.3190499999999998  9.2429900000000007
  4.7511000000000001  2.2388900000000000  6.9202700000000004
 13.9797999999999991  5.2823799999999999  7.9461100000000000
 13.7493999999999996  9.5490999999999993  2.1041300000000001
 12.5710999999999995  4.0752100000000002  1.6205600000000000
  2.7201599999999999  4.1802999999999999  4.1516299999999999
 13.2987000000000002  2.0814599999999999  7.9159400000000000
 13.2073999999999998  1.8528899999999999  2.1684100000000002
  5.2151600000000000  0.4658320000000000  2.7444500000000001
  9.1640200000000007  6.0806500000000003  2.3163499999999999
  0.3296490000000000  6.6226000000000003  9.7439499999999999
  4.5163000000000002  4.4781700000000004  2.7989000000000002
  2.6733899999999999  5.5073200000000000  9.6538199999999996
  3.6699899999999999 12.9115000000000002  7.3335400000000002
  1.2622599999999999  3.6955100000000001  0.1935020000000000
 12.0646000000000004 12.7203999999999997  9.7357399999999998
  9.5406099999999991  2.4441899999999999  3.2109299999999998
 10.2927999999999997 14.2095000000000002  0.6194210000000000
  2.0460300000000000 12.7266999999999992  3.2308800000000000
 14.4094999999999995 13.1683000000000003  2.8481700000000001
 12.4974000000000007  2.4095800000000001  5.6042500000000004
 13.6478999999999999 13.9697999999999993  4.9596999999999998
  2.1117900000000001 10.9684000000000008  4.6949100000000001
  7.6648600000000000  6.0375199999999998  4.0694800000000004
 12.9938000000000002 11.7274999999999991  1.8156500000000000
  2.0385300000000002  2.0200200000000001  3.5957900000000000
 13.6999999999999993 14.3148999999999997  8.8617699999999999
 13.6419999999999995  6.0022000000000002  5.6903400000000000
  2.9812400000000001  3.7930700000000002  6.4439399999999996
  4.3892300000000004 13.0661000000000005  9.4044799999999995
  3.2501400000000000  0.0451582000000000  4.0493699999999997
  5.4551100000000003  6.4619200000000001  3.6526100000000001
 11.1015999999999995  0.6918720000000000  2.7331699999999999
  8.0170800000000000 13.5609999999999999  0.7166700000000000
  0.2166360000000000  8.1520899999999994  5.8681700000000001
  9.5863899999999997  1.3924300000000001  8.9525900000000007
  5.6821000000000002  7.6012599999999999  1.5065999999999999
  6.5781900000000002 10.5579000000000001  8.5289099999999998
  4.6769999999999996  0.0156233000000000  5.9998199999999997
 11.6539000000000001  4.6337599999999997  5.3772799999999998
  0.1693760000000000  0.3406260000000000  0.9472780000000000
  4.5711899999999996  4.3538800000000002  0.5167370000000000
  6.7896000000000001 13.2477000000000000  2.8180000000000001
  5.9720599999999999  6.3677500000000000  7.4262400000000000
  4.2787100000000002  0.7646500000000001  0.6494950000000000
 14.1957000000000004 12.9304000000000006  6.9976099999999999
  8.4604900000000001  4.7913600000000001  0.5041030000000000
  3.8686199999999999  7.9036299999999997  4.5925099999999999
 12.4135000000000009 11.4438999999999993  7.6149899999999997
  6.8480299999999996 12.9216999999999995  8.6349900000000002
  7.7712100000000000  2.8521399999999999  1.7581700000000000
 12.3417999999999992  3.9748800000000002  9.0575500000000009
  0.8471370000000000  5.5808000000000000  3.8698800000000002
  2.7185000000000001  9.5039099999999994  0.2006160000000000
  3.1400100000000002  9.5869400000000002  7.8008499999999996
  6.3135899999999996  5.9928600000000003  9.8177099999999999
  0.3033520000000000  8.9968699999999995  0.0648270000000000
  9.2679100000000005  0.4246230000000000  6.4956500000000004
  0.7920050000000000  9.2303099999999993  3.8932400000000000
  5.9447299999999998  2.7134800000000001  3.1273700000000000
  9.9782200000000003  3.6406399999999999  8.7319700000000005
  3.5797900000000000 11.6432000000000002  1.1674599999999999
  3.2509100000000002  7.4021299999999997  1.0694100000000000
  6.1980100000000000 10.0439000000000007  0.9440780000000000
 11.2426999999999992  0.1710070000000000  4.9614399999999996
  4.8658799999999998 10.8594000000000008  6.9438800000000001
  3.6099600000000001  5.8479700000000001  7.4517600000000002
