 H Si 
 1.0000000000000000
    14.5871822212489128    0.0000000000000000    0.0000000000000000
     0.0000000000000000   14.5871822212489128    0.0000000000000000
     0.0000000000000000    0.0000000000000000   25.7534020000000048
 H   Si 
  26  59
Cartesian
 14.5071422299999995 11.0566912500000001 15.4562900200000009
 14.3071367200000008  6.7561355599999997 15.4935143499999999
  0.9411683199999999  3.0849181200000002 16.5812601199999996
  2.6169545500000000 13.9936655600000002  8.8995663999999994
 11.6615727800000002  5.1785550400000000 13.8766001200000009
 13.0894658800000006  1.3342692300000001 12.8322735500000000
 13.5686619700000008 14.0802390800000001 14.9727267600000005
  8.2376766099999994  9.6919977599999996 12.9507980200000006
 12.7139285999999991  8.5458508900000005 15.6767275999999995
  1.1420490000000001  5.8102160100000004 15.9090207499999998
  0.4895573800000000  4.0337515300000000 14.3273095300000008
 14.8446717499999998 15.0704401899999993 16.7220373600000016
  1.8193362200000001  5.5128797399999998 15.9828104700000004
  0.3355029200000000 14.3681110400000005 12.8637285000000006
 11.2437261300000007  3.5736911600000001 14.0791099600000003
 12.2685545999999999  4.8802063599999999 16.3264318099999990
 13.0213691100000002  3.5904789300000002 12.4470869400000002
 12.8961269200000004  2.5184087700000002 15.8520308900000000
  0.2430233200000000  3.2660341599999998 16.4213856999999983
 10.1745520799999998 11.1169751800000007 16.3398499000000008
 12.3543324400000003  4.6286981400000000 15.6357048899999995
  1.3764587399999999 13.7880805800000008 15.0408669300000000
 13.2132453400000003  1.9945572300000001 15.4304889700000007
 14.9928784099999994 15.9105164600000002 14.4199106399999994
  0.2368018900000000  6.1544859599999997 12.5058876500000000
 14.6967249199999994 13.9813246800000002 12.2579760800000006
  8.1038534799999997 12.5664660200000000 14.2951097699999998
  9.1485429800000002  1.0075087400000000 11.3644494100000006
  7.5968872999999997  9.5913835299999999 11.4494183500000002
  9.4128103599999999 12.6115398800000005  9.5373034699999995
 11.9535595400000005  1.8151490600000000 10.0038246700000002
  6.3851346500000004  3.4596721200000000 12.6345618399999999
 10.8967602100000001 -0.3149509800000000 10.5222751399999996
  2.2779014499999999 11.5763271000000003 13.3619751699999991
  5.9439123699999996 11.7125318899999993 13.9655701299999997
  3.9933969199999999  0.6660302800000000 13.6362389999999998
  6.8413389999999996  8.0832636699999991 14.5272280200000008
  3.9639574000000000 12.9851921099999998 14.2008421100000000
 13.5271429699999999  8.6506748499999997 11.1091209499999994
  5.2131682499999998  5.4001779299999999 13.1849360799999999
  0.0854363600000000  8.8882471899999995 13.1325855800000006
  1.8119495999999999  3.6124942999999998 13.7769554799999998
 -0.1040748700000000 11.0858792499999996 13.9686747699999998
 14.8589886100000008 14.7284037300000001 15.2912377199999998
  8.4885567900000005  6.4630226899999998 11.8387857499999996
  9.8878380000000003 11.0746122000000007 14.8891936400000002
 13.4501025599999995  2.3367299300000002 11.7742013199999995
  6.7139071100000001  5.7616522000000003 15.0005248000000009
  6.2677124400000004  1.1940680500000000 13.4099338299999999
  6.3860639299999997  7.5520825000000000 12.2641970499999999
  7.9157475699999997  0.2399818300000000 14.8457294500000003
  6.8544949199999996  0.7181483800000000 11.1700066200000006
  1.1994552999999999  2.5403320200000001 11.7702776599999996
  4.1197855700000003  8.1885068499999996 11.3650765000000007
 12.0558047800000008  6.4670613899999996 13.3014171700000006
  5.3251210200000001  9.7597450200000004 15.0903046300000003
  2.1410822999999999 11.7611256300000004 11.0303156399999995
  8.9671511600000002  9.0098379200000007 14.2770339100000001
  4.0646864899999997 10.4857630000000004 11.1891985900000002
 -0.0160054200000000  4.6749072399999996 10.0542165699999995
  8.2466745299999999  4.6529823099999996 13.4121396900000001
 13.4376790199999991  7.6760764500000001 14.7256003999999994
  9.6203416100000005 10.5884823899999994 10.7409393899999994
 11.9144500099999995 11.3684178399999993 13.4996666300000001
 10.2492744800000004  7.8048903799999998 12.7646310599999993
  7.3482673299999997 13.1210186699999998 10.6149585299999991
  8.2737714199999992  4.0573631900000002  9.8444363500000005
  8.4617860000000000  6.2963568800000003  9.5397275399999995
  3.0488492400000000  1.0935710900000000 11.4751256099999992
  6.2829392500000001  2.8668608999999998 10.3594453200000007
  2.2682334800000001  7.8413046399999997 12.9347150899999992
 11.1427459899999999 13.5344834600000006 12.7368626799999998
 10.0666365599999992  3.1250860999999999 13.2934773699999997
  2.8600490800000000  2.0592497299999999 15.2128424300000002
  9.7915163599999993  0.7834504600000000 13.6221996500000007
  3.6590636999999999  9.6077528700000006 13.4947455000000005
  9.1009940000000000 12.4597791299999994 12.1500186100000001
  3.0670819599999999 13.7130743699999993 10.2796633199999992
 13.6546859499999993  6.3062417000000002 11.5606013300000008
 11.4615947100000000  9.6346711400000000 11.8354944799999995
  2.8770419600000001  5.5534614400000004 12.9282240900000005
  2.2584298700000001  4.4971345700000001 10.8615402999999997
  6.1408466199999996 11.3828076199999995 11.6264315400000005
 10.1272060100000001  3.0717998799999999 10.9072882199999999
  3.9308249399999999  2.9131176000000001 10.2867151600000000
