 H Si 
 1.0000000000000000
    14.5802938633580741    0.0000000000000000    0.0000000000000000
     0.0000000000000000   14.5802938633580741    0.0000000000000000
     0.0000000000000000    0.0000000000000000    9.6098498154212919
 H   Si 
   9  82
Cartesian
 12.8231999999999999  6.0407299999999999  2.8161900000000002
  9.5680999999999994  6.3113700000000001  2.9915699999999998
 11.3409999999999993  4.1304900000000000  9.6066299999999991
 10.5886999999999993  2.2382800000000000  5.0281700000000003
 14.1196999999999999  2.4425800000000000  7.1998899999999999
  0.2476750000000000  4.7272600000000002  9.2723800000000001
 11.3270000000000000  5.3185000000000002  7.4868800000000002
 14.2042999999999999  4.8209000000000000  3.1688800000000001
 10.2553000000000001  1.2529500000000000  7.8911800000000003
 12.0663999999999998 12.6944999999999997  1.2318100000000001
  9.6154399999999995 14.5495999999999999  8.1354799999999994
  3.1051000000000002  1.0313000000000001  1.3075100000000000
  0.2580570000000000  8.4056899999999999  6.2169999999999996
 13.2754999999999992 10.1333000000000002  5.3318800000000000
 13.5145000000000000 14.2271000000000001  4.1788200000000000
  1.8589599999999999 10.0470000000000006  5.7488200000000003
  6.5250899999999996  3.4265599999999998  6.5952200000000003
 12.3651000000000000  7.3747699999999998  2.3279200000000002
  1.6591199999999999 12.3597000000000001  5.9734200000000000
  2.5992099999999998  8.2903000000000002  2.4624500000000000
  2.5716399999999999 12.8285999999999998  8.0145400000000002
  4.4414100000000003  2.1691900000000000  7.1490600000000004
  2.5090200000000000  5.4630599999999996  7.2018000000000004
  7.1708400000000001 12.7096999999999998  1.0959900000000000
 13.4466999999999999  9.3308199999999992  3.0080499999999999
  0.8088600000000000  0.9407990000000001  0.7595260000000000
 10.3412000000000006 12.8941999999999997  2.7723700000000000
  7.8826599999999996  7.7476000000000003  0.4098290000000000
  7.1913000000000000  2.2252000000000001  4.5757800000000000
 10.2050999999999998  7.5985199999999997  3.2016499999999999
  8.3324200000000008  0.3304220000000000  0.6327850000000000
  7.8436599999999999 10.4909999999999997  4.7666899999999996
  9.6437799999999996 12.0393000000000008  4.8393499999999996
 12.3133999999999997  7.2793599999999996  9.4949999999999992
 13.6090000000000000 12.5694999999999997  7.7958200000000000
  8.7513299999999994 13.9329000000000001  5.9367599999999996
 10.8888999999999996 10.2622999999999998  5.6159999999999997
  4.3222600000000000 10.2001000000000008  9.4744799999999998
 14.3079999999999998 13.5547000000000004  1.9672300000000000
 11.3104999999999993 12.8917000000000002  8.6516999999999999
 10.9895999999999994  5.3238700000000003  8.8564399999999992
  4.4888700000000004  0.1054360000000000  6.1490999999999998
 10.0744000000000007  0.5252960000000000  2.3578000000000001
  3.9118100000000000  4.9986899999999999  1.7455499999999999
  3.7330800000000002  2.8019799999999999  2.6923400000000002
  1.4837899999999999  6.4880899999999997  5.3606999999999996
  1.9122200000000000  6.1680700000000002  1.5977800000000000
 11.2806999999999995  9.3335699999999999  9.5405999999999995
  6.4971899999999998 14.4749999999999996  4.7768899999999999
  1.2396000000000000 10.0662000000000003  3.3521800000000002
  7.7851600000000003 10.8757000000000001  7.3813399999999998
  1.5627200000000001 12.0029000000000003  1.9832200000000000
  1.0426800000000001  5.0254300000000001  3.5589000000000000
  0.9268000000000000  5.9183500000000002  9.0489999999999995
  2.6751000000000000 14.0838000000000001  4.7878800000000004
  5.5594299999999999 10.5069999999999997  3.7427899999999998
  7.0863300000000002  8.7291699999999999  7.8867000000000003
  7.9307600000000003  6.9453600000000000  6.6170299999999997
  3.5574699999999999  7.3556100000000004  4.4349900000000000
  0.7024350000000000 14.2193000000000005  8.4531299999999998
  4.7763700000000000  1.3698300000000001  9.3592600000000008
  6.0690099999999996  5.6559999999999997  5.8456700000000001
  9.4801500000000001  1.2797499999999999  4.5533900000000003
  4.5250500000000002  6.4069900000000004  7.5081100000000003
 10.1910000000000007 10.7417999999999996  7.9967800000000002
  5.2542200000000001  5.9800300000000002  3.5688399999999998
  6.0784000000000002  2.9994200000000002  2.8032100000000000
  9.5724000000000000  9.0716199999999994  1.4896000000000000
  4.5433800000000000 13.8186000000000000  8.3072300000000006
 14.4231999999999996 10.3756000000000004  8.8771500000000003
  2.0481099999999999 11.0352999999999994  9.4197699999999998
  5.6683100000000000 12.8306000000000004  3.1194700000000002
  2.0668899999999999  2.9525899999999998  4.3066899999999997
  4.8492699999999997  8.7387499999999996  7.6672300000000000
  6.8679300000000003  2.2804099999999998  0.6639210000000000
  0.7517290000000000  1.4751399999999999  6.9308500000000004
  0.8775300000000000  1.0211300000000001  4.7118300000000000
  4.7403500000000003  9.1857299999999995  1.8575500000000000
  5.2973200000000000  5.4353199999999999  9.5324899999999992
  9.3490099999999998  8.6421600000000005  5.1017599999999996
  8.8142099999999992 11.2304999999999993  2.2178599999999999
  8.7927400000000002  5.9142099999999997  8.7220999999999993
 14.3082999999999991  7.9771000000000001  8.4381599999999999
 12.8337000000000003 10.5411999999999999  1.0826199999999999
  5.8450899999999999  7.1593499999999999  1.4441400000000000
  2.5165799999999998  3.1340200000000000  6.6253599999999997
  7.2195600000000004  4.1628200000000000  8.8478899999999996
  4.1125600000000002  9.4364699999999999  5.5795399999999997
 13.9329999999999998 12.3491999999999997  5.5072000000000001
  5.8506600000000004 11.8886000000000003  8.9838100000000001
  3.4121800000000002 13.5671999999999997  2.5264500000000001
