 H Si 
 1.0000000000000000
    14.5906239619226561    0.0000000000000000    0.0000000000000000
     0.0000000000000000   14.5906239619226561    0.0000000000000000
     0.0000000000000000    0.0000000000000000   10.1547773550650646
 H   Si 
  59  75
Cartesian
 14.0912000000000006  8.7871500000000005  5.6757799999999996
 11.3917999999999999  5.2266700000000004  5.7046500000000000
 10.1481999999999992 11.5498999999999992  0.5168040000000000
 11.7963000000000005  6.8547500000000001  9.7614400000000003
  0.8062800000000000  2.6856100000000001  5.1138399999999997
  0.5172930000000000  4.8727600000000004  0.6310660000000000
 13.0809999999999995 11.1630000000000003  0.5761269999999999
 12.6816999999999993  2.3741200000000000  5.5693400000000004
 14.0531000000000006  9.0737699999999997  9.8121100000000006
 11.8760999999999992  8.2952200000000005  3.7121900000000001
 12.0960999999999999 13.3032000000000004  0.0858948000000000
 11.1682000000000006  0.5069660000000000  6.9026500000000004
  0.2841590000000000  2.6120800000000002  2.4581900000000001
 11.2347000000000001  9.4113399999999992  6.7662599999999999
 12.6844000000000001  3.9445199999999998  7.4827500000000002
  1.8479200000000000  0.5983450000000000  0.0538844000000000
  0.2750650000000000 11.9002999999999997  0.6191170000000000
 10.4086999999999996  1.9080100000000000  1.3240300000000000
 13.4808000000000003  8.2890700000000006  7.5758200000000002
 14.3346000000000000  0.8381740000000000  9.1522000000000006
  0.2120320000000000  7.1797000000000004  3.4027300000000000
 13.5390999999999995  7.2695699999999999  1.0957800000000000
 10.7155000000000005 10.4835999999999991  8.6584599999999998
 12.0472999999999999  0.9471640000000000 10.3317999999999994
  0.4999800000000000 11.8106000000000009  6.1476800000000003
 13.7045999999999992  0.2051220000000000  6.6890700000000001
 11.2902000000000005 12.0982000000000003  6.2901300000000004
 13.2434999999999992  9.8544900000000002  2.4013599999999999
 11.8896999999999995  3.7230599999999998  9.5609000000000002
 11.9492999999999991 12.6146999999999991  4.6868900000000000
 14.5010999999999992 14.4346999999999994  1.7066300000000001
  0.6028390000000000  0.1533320000000000  3.8131499999999998
  1.3191200000000001 14.1763999999999992  7.0870199999999999
 14.2296999999999993 10.4952000000000005  8.0091099999999997
  0.6578420000000000  2.4570500000000002  7.2824400000000002
 12.5550999999999995 10.7927999999999997  0.8934560000000000
 -0.0937284000000000  5.6887999999999996  5.2405099999999996
 13.5505999999999993  5.0848000000000004  9.5446500000000007
 13.8171999999999997 14.0984999999999996  1.5649700000000000
 11.6914999999999996  0.9362950000000000  3.4469599999999998
 13.6731999999999996 14.4414999999999996  6.0324999999999998
 13.0093999999999994  7.0671600000000003  1.5809200000000001
  2.4762800000000000  3.3138899999999998  3.1956899999999999
 12.3285000000000000 11.7001000000000008  2.7294700000000001
 -0.3323360000000000  5.2435000000000000  4.7004200000000003
  0.2267690000000000 11.4247999999999994  3.7312099999999999
 13.9146999999999998  9.4648699999999995  5.4153300000000000
 12.8482000000000003  5.0702999999999996  3.1108899999999999
  1.0185599999999999 12.6356999999999999  8.5425599999999999
  2.3317700000000001  2.5823499999999999  3.1609699999999998
 12.3584999999999994  2.9181699999999999  5.1600400000000004
 13.3489000000000004  9.6721900000000005  3.1384200000000000
 13.4389000000000003  5.8353999999999999  9.5310500000000005
 12.8975000000000009  4.6418100000000004  7.0920899999999998
  2.6907100000000002  2.5139900000000002  0.6866050000000000
 11.2652999999999999 12.5379000000000005  6.9399400000000000
 13.1714000000000002  4.4739899999999997  3.4417399999999998
 13.8733000000000004  0.3501440000000000  8.7451000000000008
 -0.0260148000000000  2.0088300000000001  2.1869900000000002
  5.3604500000000002  0.9459190000000000  2.6015400000000000
  5.1668900000000004  7.3815700000000000  0.1035620000000000
  2.6483200000000000  9.8968600000000002  4.9546500000000000
  1.6655400000000000  6.7339900000000004  3.0829499999999999
  8.2588899999999992  0.1226420000000000  5.8747100000000003
  9.5800900000000002  3.2113100000000001  7.4412200000000004
 11.2019000000000002 12.3971999999999998  3.4860300000000000
  4.8889500000000004  8.2389799999999997  2.2894100000000002
  4.5610900000000001 14.5002999999999993  7.0149600000000003
  2.1760000000000002  8.5722500000000004  8.3500300000000003
  5.5980900000000000  3.3355899999999998  5.4900099999999998
  4.9244100000000000  6.1868299999999996  3.5167299999999999
 10.0005000000000006  8.8231400000000004  6.3247000000000000
  4.6855599999999997 10.9437999999999995  4.7527499999999998
  7.3256399999999999 14.5071999999999992  2.0940300000000001
  6.6053400000000000  5.4034399999999998  5.0213400000000004
  4.7381599999999997 14.4311000000000007  9.3629800000000003
  3.0845699999999998  6.3491499999999998  4.8622899999999998
  2.7250700000000001 13.9972999999999992  0.3874240000000000
  7.6011400000000000 12.5951000000000004  6.6127300000000000
  1.7538700000000000 13.9306999999999999  4.2839700000000001
 10.0550999999999995  5.0805199999999999  6.1962099999999998
  8.7862500000000008  5.1306099999999999  4.1611399999999996
  8.9903099999999991  7.0511799999999996  3.0078700000000000
  5.2886800000000003 12.3177000000000003  6.4436999999999998
  1.9067900000000000  5.4882099999999996  0.9963340000000001
 10.4224999999999994  6.2683099999999996  9.4125999999999994
 10.4657000000000000  3.9361000000000002  9.3822100000000006
 14.4391999999999996  9.1234000000000002  8.3947299999999991
  2.9902799999999998 10.5427999999999997  9.5617699999999992
  6.2663200000000003  4.8250299999999999  8.5305499999999999
  7.3633699999999997  2.8703200000000000  8.2454599999999996
  5.2595499999999999  1.7334300000000000  0.2981250000000000
  1.4241100000000000 12.2530999999999999  9.9417000000000009
  3.3528099999999998 14.1160999999999994  2.6249600000000002
  8.6623099999999997  7.0899099999999997  0.6731370000000000
 10.4422999999999995  8.5414899999999996  3.9938099999999999
  9.5910399999999996 10.8405000000000005  9.5162899999999997
  6.3950600000000000  1.4069600000000000  6.6599399999999997
  3.7078500000000001 10.2751999999999999  1.6074999999999999
  6.6780799999999996 12.3338000000000001  1.9050800000000001
  9.8927300000000002  0.9183750000000001  7.2834700000000003
  7.6665799999999997  1.2834000000000001 -0.0211068000000000
  3.3605600000000000  4.2326100000000002  6.2520899999999999
  3.0432800000000002  6.5537700000000001  9.4098100000000002
  2.7145000000000001  8.8141099999999994  3.0001699999999998
  9.4002599999999994  6.8631799999999998  7.5027200000000001
  8.4649500000000000 10.6181999999999999  5.6726799999999997
  6.2185699999999997 12.7518999999999991  9.7902799999999992
 11.2634000000000007 14.4183000000000003  0.5790300000000000
  7.0368100000000000  8.5686999999999998  3.1771500000000001
  3.9144999999999999  4.5882300000000003  8.5758200000000002
  5.3682299999999996  4.6229300000000002  1.8747900000000000
  6.0972799999999996  9.1216399999999993  8.9235699999999998
  7.9323499999999996 10.2813999999999997  1.9776600000000000
  8.4985900000000001  3.1606900000000002  2.9918900000000002
  4.5337600000000000 12.1442999999999994  2.8192499999999998
  7.1510800000000003  6.3909300000000000  7.2220399999999998
  3.6286999999999998  3.6870500000000002  0.5815060000000000
  8.2872100000000000 12.5827000000000009  8.8249899999999997
  1.6951400000000001  2.5983700000000001  6.2423999999999999
  9.3565600000000000 14.5779999999999994  9.2930799999999998
  1.1958599999999999 11.7086000000000006  4.7836299999999996
  6.6519199999999996  5.7633700000000001  0.4781010000000000
  9.2684099999999994  2.8156599999999998  0.8327750000000000
  8.0704999999999991  9.1937499999999996 10.1058000000000003
  6.1203700000000003  2.9315600000000002  3.1651600000000002
 10.7933000000000003  0.0316274000000000  2.7874500000000002
  5.0547100000000000 11.1607000000000003  8.6897400000000005
  2.4539000000000000  0.4112140000000000  6.2875899999999998
  5.7356600000000002  8.1473399999999998  6.7981100000000003
  6.5191900000000000  9.4584200000000003  5.2686000000000002
  9.6837499999999999 10.6981000000000002  3.6732700000000000
  3.3212100000000002  8.2507999999999999  6.3439199999999998
  8.7974599999999992  0.8900000000000000  3.7335699999999998
