 H Si 
 1.0000000000000000
    14.5249511617058591    0.0000000000000000    0.0000000000000000
     0.0000000000000000   14.5249511617058591    0.0000000000000000
     0.0000000000000000    0.0000000000000000   26.4639439000000003
 H   Si 
   3  68
Cartesian
  2.2642312900000001 11.2707385500000008 15.9905821199999991
  0.4023842800000000  1.3993428100000000 11.0168538399999996
  4.5762526599999998  2.5050623000000001 10.9520603300000001
  3.4705547999999999  1.9342764400000001 11.7675166499999992
  1.9656396000000000 12.5647678299999992 15.3222869799999994
  1.0408984500000000  8.7421202499999993 13.4358722799999999
 13.7267303399999996  5.0675088199999996 12.4166873300000002
  0.1453412600000000 10.7134955900000008 12.4776380899999992
  3.3822104899999998  8.7647704799999993 12.9855867699999994
  4.1079605900000002 14.3138343700000004 12.4812589400000000
  1.3180813000000000  5.8219893799999998 15.0710688899999994
  7.7777394400000004 12.6136143599999997 12.9775686900000000
  7.3026958200000003  2.0398391000000000 13.1443131900000001
  3.6802405299999998  6.7041596700000001 11.8418822099999996
  0.8379927200000000  4.4997533599999997 10.8846416099999992
 14.3128552300000003  4.1941551199999996 14.5417356899999994
  6.0440564500000002  6.4978976199999998 12.2535220099999993
 10.7448929000000000 12.9515619599999994 15.2822475299999994
  4.9365733599999997  8.3940933199999996 14.7541132600000005
  1.0927826700000001  2.2005948800000001 14.3674960100000000
  9.2851031600000002  1.7940155000000000 14.5165006499999993
  7.5396667900000001  2.9463572800000000 11.0466624800000002
 11.6657319499999996 13.2308025499999999 11.0162638099999999
  8.4261075099999996  5.2241875200000001 14.3226525900000006
 12.1792922000000008  8.2335936899999993 13.1560891200000007
 10.0339127900000005  7.8442139500000003 12.2829131599999997
  9.0527064599999996  9.7268732900000003 11.2340632300000003
 14.2050118899999998 13.1471603600000009 15.4575596399999995
  1.3499580799999999 12.6420774700000003 13.0304198499999995
  0.3883905400000000  7.8551883000000000 15.5008759600000001
  6.7776588000000002  8.4908886999999993 13.3158491899999998
 11.4294346299999994  4.3653433399999999 12.2336776199999999
  1.4887780700000000  2.3443843900000001 10.6475169399999992
  0.2534448500000000  7.9795708400000001  9.9820667200000006
  3.9718714199999998 13.7329647099999992 14.8163656100000001
  5.2207243900000000  6.0810319499999999 14.5343431800000005
 11.6335888000000001  2.3032413400000000 11.1477446600000007
 12.4905969900000002 10.5321381400000007 13.2603576299999997
  6.5720473100000003  4.6077723800000001 15.6632011599999998
  9.4783523299999999 13.8746231400000006 11.7463907299999999
  3.3058027800000001  3.0405978700000000 13.7948994900000006
  8.7236525500000006  7.5777051400000000 14.2237573699999995
  9.4364924899999991  1.6093524200000000 11.0314336999999991
 10.9548144399999998 11.0362160300000003 11.5942823799999992
  3.1327523400000001  5.3765213500000000 13.7511767400000000
 10.6755004899999992 14.5961385600000000 13.6770065200000008
 12.5632158000000000  0.4721960800000000 12.3761145999999993
  5.4955709900000000 10.2031776799999996 16.1246108899999996
  3.0861926600000000 12.5372387900000000 11.4000990600000005
  6.3446818100000000 14.4378251399999993 13.1059983399999993
  5.0689286800000000 11.6968083699999994 14.4028961899999999
  9.4492987500000005  9.1431849700000001 15.7695443999999991
 10.4222518799999992  3.9948920200000000 14.4262004699999995
 12.5974230299999999  7.3726092100000002 15.3141367600000002
 14.5729087499999999  0.1071740500000000 13.6148408900000000
 14.0762945399999992  7.3936549500000002 12.0929096800000000
  8.4907135199999999 12.6746496900000007 15.2878597099999993
  5.8378851999999997  0.5570309800000000 15.3647996500000001
 12.6061326499999993 11.3153726799999994  9.9674654999999994
  4.4506311299999997 10.8058428200000005 12.3013341599999997
  7.9386490700000003  5.0718613000000001 11.9531258900000008
  1.9722791399999999  6.4126003499999999 10.2281478000000003
  9.9671940800000005  5.8461069200000004 11.0917909399999992
  8.0526173199999995  0.3504406300000000 16.1127370100000000
 11.6452673900000008  9.2982113300000009 16.3829298299999984
  0.2240464900000000 10.3336584200000008 10.1845645999999999
 12.2942877300000006  4.9490224700000001 15.5900862100000008
  5.5571493299999997  2.7499181899999998 14.6443641600000003
 12.4441905899999998 11.4279081500000004 15.4003772899999998
  7.7628625099999997 10.6326608199999999 16.0750452000000017
  6.9391427300000004 10.5342655599999997 12.1460992500000007
