 H Si 
 1.0000000000000000
    14.5653467177202689    0.0000000000000000    0.0000000000000000
     0.0000000000000000   14.5653467177202689    0.0000000000000000
     0.0000000000000000    0.0000000000000000   26.4430805900000010
 H   Si 
  21  67
Cartesian
 10.0434999999999999  6.0975999999999999 16.2178105899999991
 10.4898000000000007  2.9473600000000002 16.0818705900000012
  6.4586800000000002  3.8984399999999999 14.1538705900000004
 12.4693000000000005  5.9771400000000003 15.5328805899999995
  6.8981300000000001  4.4681400000000000 14.3836705899999995
  8.7952600000000007  3.9785800000000000 14.6471405899999993
  9.4631900000000009  3.8337699999999999 14.1542605899999998
  6.8624799999999997  2.5858400000000001 15.8774005900000006
  4.1881300000000001 14.2352000000000007 15.0690605899999994
  8.0220699999999994  3.6116700000000002 12.6134205900000005
  1.4262699999999999  5.6636400000000000 11.3405605900000008
 13.2791999999999994  2.2122700000000002 15.1449205899999999
  4.7115000000000000  2.6841400000000002 13.8622405900000008
  5.1885399999999997  4.5464399999999996 15.5687505900000005
  5.3511400000000000  2.4057200000000001 14.1563605900000002
 11.4837000000000007  3.7646600000000001 14.5136505899999992
  1.7212099999999999  1.3571899999999999 15.4232605899999999
  1.4420999999999999  3.7640300000000000 14.5995905900000000
  2.8911199999999999  3.5914899999999998 15.7006105900000001
  2.9571900000000002  1.5885700000000000 13.8985905899999995
  1.8532500000000001  0.5933110000000000 15.6019105899999992
 13.8890999999999991  6.8698399999999999 11.6739905900000007
  1.5136700000000001  6.0549299999999997 12.6997605900000003
 12.4720999999999993  0.4148200000000000 11.1938905900000005
 13.3123000000000005 12.0604999999999993 12.3797805899999993
  0.2903590000000000  4.4870299999999999 13.8731505899999998
  5.2973600000000003 13.5653000000000006 10.4537145900000006
  5.3249700000000004 10.8000000000000007 12.5914805899999998
  7.6700600000000003 11.1874000000000002 15.7925705900000004
  6.8412800000000002  7.5718300000000003 14.1847505900000002
  3.7864100000000001  4.7476599999999998 15.2558105899999994
  9.7476400000000005 11.4663000000000004 14.6036905899999994
 11.4840000000000000 11.2081999999999997 15.9801205900000003
  6.2925300000000002  9.7330400000000008 14.5685605900000006
  6.9490900000000000  0.8324520000000000 13.4455105899999996
 13.9890000000000008  3.5239500000000001 10.3213235900000004
 10.8618000000000006  5.7528100000000002 10.4779365900000005
  4.8949800000000003 14.5328999999999997 12.4467705899999999
  2.5488499999999998  8.6806400000000004 10.8958715900000005
 13.2204999999999995  8.8549299999999995 14.5064205899999994
  0.3294160000000000  8.7416199999999993 11.5418005899999994
 13.6454000000000004  3.1156500000000000 12.4267905899999995
  8.4044100000000004 14.0883000000000003 12.2696405899999998
 11.7251999999999992  8.9447399999999995 16.2515005899999991
  7.4201100000000002 12.5023000000000000 10.9796455900000005
 11.2833000000000006  9.4170900000000000 11.5122505900000007
 11.3757999999999999 12.9078999999999997 11.4462705899999992
 13.8148999999999997  5.4542500000000000 15.7359705900000009
  2.9927899999999998  1.3019700000000001 12.3944805900000006
  7.3637699999999997  2.5930300000000002 11.9305205900000004
  3.7810000000000001  5.2453700000000003 12.9652505900000001
  6.4456600000000002  6.5097300000000002 10.3935365900000001
 10.4984999999999999  6.0779500000000004 12.8183005899999998
  9.1416699999999995  7.8781699999999999 13.7949905899999994
  0.9872350000000000  7.1299599999999996 16.0445605899999997
  1.2987899999999999 12.4924999999999997 12.1119605900000007
 13.3259000000000007 10.4556000000000004 10.9739075899999996
  0.5202510000000000 11.9338999999999995 15.6256605900000007
 13.2392000000000003 11.2347000000000001 14.5613405900000004
 13.3864999999999998  0.6905480000000001 14.7756505899999997
 10.3009000000000004  8.0619700000000005 10.0000000000000000
  9.9214000000000002  7.5831700000000000 16.1159205900000018
  5.9735199999999997 12.7330000000000005 15.9835005900000002
  7.7144899999999996  1.3613900000000001 15.5754905899999994
  5.7214200000000002  2.7858299999999998 10.3471065899999992
  4.3216500000000000 13.0055999999999994 14.2259105899999998
  2.2958099999999999 10.9959000000000007 10.5753965900000004
  4.5655000000000001 11.4616000000000007 10.2955355900000001
  1.4344600000000001  0.1177460000000000 11.3081205899999997
  6.4241700000000002  6.8105799999999999 16.4430805900000010
  8.0098900000000004  8.3365899999999993 10.5525285899999997
  7.4897700000000000 10.3900000000000006 11.7128305899999994
  9.9693900000000006  1.5710100000000000 15.9765205899999998
  2.3758900000000001 11.8672000000000004 14.1457705899999997
 14.1272000000000002  0.8011800000000000 12.5453205899999993
 10.9321000000000002  1.7388500000000000 12.2249105900000004
  0.8787850000000000  8.0921500000000002 13.8912505900000003
 10.1692000000000000 13.2670999999999992 13.3485205899999997
  4.1953800000000001  8.7050199999999993 12.4607105899999997
  5.5652699999999999  6.7521399999999998 12.4720805899999991
  9.0312699999999992  1.3217800000000000 10.9917705899999998
 11.0493000000000006  0.4377850000000000 14.2479205899999997
 11.6019000000000005  3.8568799999999999 12.9594205900000006
  4.2842200000000004  9.5146200000000007 15.8524205899999995
  9.4573900000000002 10.0076000000000001 12.8563205899999993
  2.6723699999999999  9.5699400000000008 14.1897405899999995
 12.1677000000000000  7.7408500000000000 12.7619605899999993
  3.5943000000000001  3.3882400000000001 11.4151205900000008
