 H Si 
 1.0000000000000000
    14.5445998864130264    0.0000000000000000    0.0000000000000000
     0.0000000000000000   14.5445998864130264    0.0000000000000000
     0.0000000000000000    0.0000000000000000    6.9123758895438812
 H   Si 
   4  49
Cartesian
  5.4698799999999999  9.9804300000000001  2.5068000000000001
  5.3375300000000001  1.9678599999999999  6.1585200000000002
  5.5464000000000002 10.1720000000000006  5.6511199999999997
  2.4019400000000002  8.3747900000000008  5.7267000000000001
  0.2494140000000000  1.5554399999999999  6.0728099999999996
 12.2952999999999992  5.2206000000000001  3.0557099999999999
 12.2083999999999993  8.1007099999999994  0.4676950000000000
  2.5251600000000001 11.3574000000000002  1.6817400000000000
 14.1127000000000002 12.3956999999999997  4.1706099999999999
  0.7729710000000000  3.5054699999999999  0.3342740000000000
  1.8694500000000001 11.2575000000000003  4.0504300000000004
  3.1195400000000002  0.1790380000000000  3.0201199999999999
  0.6552650000000000 10.4090000000000007  0.4386970000000000
 10.8867999999999991  9.8741900000000005  3.8315500000000000
  2.7912100000000000 13.5847999999999995  1.0313000000000001
 14.4228000000000005  5.7019700000000002  3.9423200000000000
  0.3756670000000000 14.1060999999999996  0.5685930000000000
  1.0832200000000001  1.3632100000000000  3.6534399999999998
 10.8332999999999995  6.1555600000000004  4.6037499999999998
  0.1604510000000000  3.3733200000000001  2.5232399999999999
 10.9095999999999993  1.8226400000000000  1.9504900000000001
 13.7317000000000000  4.8078599999999998  6.1697899999999999
  7.8113299999999999  0.1311100000000000  2.1996000000000002
 12.4519000000000002  2.8274400000000002  3.2199100000000000
  8.8976600000000001  1.8882200000000000  3.3186200000000001
 12.7138000000000009  2.7531099999999999  5.6945199999999998
  8.1431600000000000 12.0465000000000000  6.2806600000000001
  5.7269500000000004 11.3658999999999999  6.5084099999999996
 12.6865000000000006 10.9329999999999998  2.7501600000000002
 11.6725999999999992 12.3485999999999994  1.0134099999999999
 13.8696999999999999 12.2576000000000001  6.5536000000000003
 10.0875000000000004  8.9158600000000003  1.6269700000000000
  9.5076099999999997 11.3003000000000000  1.0498900000000000
 11.7634000000000007 14.2895000000000003  2.4397400000000000
 12.2405000000000008  5.7246800000000002  0.7200430000000000
  9.5922499999999999  0.9681550000000000  5.3438800000000004
 12.2003000000000004  8.2206399999999995  5.0766299999999998
 11.0303000000000004 13.7097999999999995  4.6587399999999999
  5.6018600000000003  0.3628400000000000  3.2042899999999999
 13.8734000000000002  9.1295800000000007  1.9147099999999999
 10.6106999999999996  2.5227400000000002  6.6206500000000004
 14.0975000000000001 14.2980999999999998  2.6946800000000000
  7.6802500000000000 14.4907000000000004  6.5587900000000001
  4.4788199999999998 13.3925000000000001  6.3498999999999999
 10.2324000000000002  4.9013799999999996  6.7766900000000003
  3.3538000000000001 12.8714999999999993  4.3828399999999998
  9.5346200000000003 11.9428000000000001  4.4170400000000001
 14.4412000000000003  8.1080400000000008  4.0343900000000001
  8.1884999999999994 12.4664000000000001  2.6557300000000001
  5.6491199999999999 12.5606000000000009  3.2120799999999998
  4.8062800000000001 11.0383999999999993  1.7010099999999999
  5.7427000000000001  0.6198360000000001  5.5045500000000001
  1.3692500000000001  9.3556299999999997  5.2507099999999998
