 H Si 
 1.0000000000000000
    14.5791451707353072    0.0000000000000000    0.0000000000000000
     0.0000000000000000   14.5791451707353072    0.0000000000000000
     0.0000000000000000    0.0000000000000000   10.1184890654511292
 H   Si 
  30  84
Cartesian
  7.0719099999999999  8.7885700000000000  0.0947364000000000
  2.5419499999999999 13.3705999999999996  1.1601999999999999
  4.8751199999999999 11.4428000000000001  8.1260700000000003
  5.4115000000000002 10.9649000000000001  8.0730000000000004
  5.9741000000000000  9.6182400000000001  4.9658400000000000
  5.9515599999999997 10.3018999999999998  2.3814400000000000
  3.9078200000000001  8.5634800000000002  8.3574999999999999
  2.8575100000000000  7.1547900000000002  5.4003300000000003
  7.9677699999999998  8.3191900000000008  2.9064700000000001
  4.5225200000000001 12.4697999999999993  4.7138999999999998
  6.5520300000000002 10.1481999999999992  2.0126100000000000
  3.9044099999999999 10.1769999999999996  3.6262099999999999
  7.0575900000000003  6.3659800000000004  1.9032899999999999
  2.1971699999999998  8.5364100000000001  7.5963599999999998
  6.9343800000000000 12.8512000000000004  1.4188600000000000
  6.3838400000000002  8.4637300000000000  0.3090360000000000
  5.2959199999999997  6.3669399999999996  3.8837400000000000
  3.6362399999999999  7.8751899999999999  0.8510740000000000
  5.7213900000000004 12.9322999999999997  9.6973800000000008
  3.8312599999999999  9.9125300000000003  6.3842999999999996
  7.8130100000000002 10.3573000000000004  9.0752299999999995
  4.6599100000000000  6.7430500000000002  3.8535100000000000
  5.4316500000000003  7.1376400000000002  8.5724300000000007
  3.3328799999999998 10.4056999999999995  6.3651900000000001
  6.5951599999999999  9.2993100000000002  4.6405000000000003
  6.9354500000000003  7.1137600000000001  6.6769400000000001
  4.0371699999999997  8.1889900000000004  1.3691500000000001
  4.4495500000000003  9.0228699999999993  8.4917200000000008
  3.7203800000000000  9.5661400000000008  3.1794600000000002
  6.4252599999999997 11.7440999999999995  4.8238000000000003
  4.7266800000000000 14.5274999999999999  7.1076899999999998
  6.1437499999999998  6.2906199999999997  7.7242499999999996
  3.5702199999999999  3.8243800000000001  1.9825800000000000
  7.5805400000000001  4.9966600000000003  1.4119900000000001
  5.8456700000000001  1.1951499999999999  2.1201599999999998
 13.1452000000000009  8.4532600000000002  2.0825499999999999
  8.7172999999999998 11.4534000000000002  9.3017900000000004
 12.8900000000000006  0.7828970000000000  2.1168399999999998
 12.2188999999999997 10.1870999999999992  7.5648999999999997
 11.2985000000000007  3.9562200000000001  5.2480500000000001
 13.9756999999999998  4.4711299999999996  8.0289400000000004
 13.6442999999999994  3.1201200000000000  1.6691199999999999
 12.9097000000000008  5.6953899999999997  9.7422699999999995
  8.9492700000000003  0.2024390000000000  0.8020320000000000
 11.1593000000000000 12.0048999999999992  2.9895100000000001
  6.8853700000000000  1.0968599999999999 10.0920000000000005
  9.5324799999999996  5.4949100000000000  5.9971500000000004
 12.7478999999999996 12.1028000000000002  6.4374399999999996
  9.6108200000000004  0.1038860000000000  7.3219900000000004
  7.1689900000000000  0.2088590000000000  3.7734600000000000
  7.8868600000000004  1.9193499999999999  7.0162399999999998
  0.5443050000000000  3.2962300000000000  9.7473100000000006
  6.0536199999999996  3.6735099999999998  2.6094900000000001
 13.0269999999999992 11.1395999999999997  4.2607900000000001
 10.5414999999999992  0.6707510000000000  9.4040099999999995
 13.2072000000000003  0.9359860000000000  6.5720799999999997
  1.3543400000000001 12.7835999999999999  5.7556200000000004
  0.6197290000000000  0.5616430000000000  5.2548199999999996
  1.9368300000000001  4.1475200000000001  3.9339000000000000
 14.3962000000000003  6.5160799999999997  1.1706200000000000
  8.4149999999999991 12.6059000000000001  1.2077500000000001
  3.0243000000000002  1.6169899999999999  7.6663399999999999
  9.1390200000000004  8.9755299999999991  3.4176000000000002
 12.4667999999999992 14.0795999999999992  0.0135022000000000
  9.7781500000000001  3.0408200000000001  3.6342300000000001
  6.0742799999999999  3.6980300000000002  5.0840899999999998
  9.2345600000000001  0.9285639999999999  2.9517799999999998
  4.2713299999999998  3.5144799999999998  8.4852299999999996
 12.7972999999999999  5.3865699999999999  4.2539499999999997
 13.9762000000000004  9.0179100000000005  4.1826299999999996
 14.4952000000000005  4.8076900000000000  2.9025599999999998
 11.6667000000000005  4.1256199999999996  0.7047710000000000
  0.1299160000000000 12.1685999999999996  7.6880699999999997
 10.7980999999999998  3.0204599999999999  9.0041100000000007
  1.2525599999999999  1.0717300000000001  9.4764400000000002
  1.0133200000000000  7.8094700000000001  8.2071199999999997
 10.7601999999999993 10.3740000000000006  9.5265900000000006
  1.6887000000000001  6.7699600000000002 -0.0614105000000000
  7.6864299999999997 12.6435999999999993  4.8912199999999997
 12.1329999999999991 11.7992000000000008  0.8048520000000000
  6.2573999999999996 13.8958999999999993  8.6184100000000008
 14.2394999999999996  9.9837199999999999  8.6767699999999994
 10.0223999999999993  7.6502600000000003  5.1191399999999998
 13.5861999999999998  7.1270800000000003  5.5259200000000002
  9.8510799999999996  8.2216100000000001 -0.0060634200000000
  9.7342300000000002  4.7490500000000004  2.1539299999999999
 12.2681000000000004  3.0496400000000001  7.1489799999999999
  0.6752990000000000  5.9108799999999997  6.8832700000000004
 11.2149999999999999 14.2418999999999993  3.4085000000000001
  2.6688499999999999  4.6228300000000004  0.0597242000000000
  1.9079699999999999  0.0718858000000000  1.3444900000000000
 11.1316000000000006  6.9811500000000004  8.8722399999999997
 13.9558000000000000 10.3748000000000005  0.9087950000000000
  0.2673960000000000 14.4586000000000006  2.9995400000000001
 10.8657000000000004  6.3868200000000002  3.2468200000000000
  9.8148900000000001  5.0445000000000002  8.2929300000000001
  3.6461399999999999 13.3719999999999999  5.4669699999999999
  1.0028999999999999 10.1172000000000004  2.5965099999999999
  8.3570600000000006  3.6615400000000000  5.4305800000000000
  3.8055699999999999  1.0694500000000000  4.4896799999999999
  4.6934899999999997  4.8835600000000001  6.6119399999999997
  0.5074140000000000 12.0587000000000000  3.6785100000000002
  2.2226900000000001  2.2178000000000000  5.4382200000000003
  8.0844000000000005 12.8888999999999996  7.3615899999999996
 10.8690999999999995  8.2719100000000001  1.9302699999999999
  3.6033800000000000  1.4894799999999999  2.2400199999999999
  7.5828499999999996  4.9274600000000000  9.1744100000000000
  6.5765000000000002  2.8380800000000002  8.7569599999999994
 14.2074999999999996 14.4148999999999994  8.5064399999999996
  6.1034400000000000  1.2563400000000000  5.5735200000000003
  8.8801799999999993 11.3447999999999993  3.2190599999999998
 11.7240000000000002  8.1176899999999996  6.7653299999999996
 11.5002999999999993 13.9829000000000008  5.8930100000000003
  2.6531799999999999  5.6971400000000001  5.6265099999999997
