 H Si 
 1.0000000000000000
    14.5768472422990421    0.0000000000000000    0.0000000000000000
     0.0000000000000000   14.5768472422990421    0.0000000000000000
     0.0000000000000000    0.0000000000000000   28.1579509999999971
 H   Si 
  45  77
Cartesian
  3.9609638000000000  2.9873267900000000 12.7520524300000009
  2.1603459100000002  8.0514209599999997 15.2405875300000009
  3.9670536200000002  8.8787014499999994 16.6020616899999993
  1.1759260000000000  6.8285917899999999 13.1908646399999991
  1.0617277899999999 12.5830214100000006 13.3182336100000001
  0.4000595400000000  8.6548492899999996 18.8345301700000007
  3.8473157200000001  4.8195633999999998  9.2433823799999999
  4.7545160500000003  7.3602748299999998 13.0656214700000000
  2.7835057600000002  8.5127764500000005 13.0603075099999995
  4.6253149000000002 13.8857830999999994 11.0510093999999999
  1.2457286200000000 14.8875705499999995 12.7218943400000004
  3.0696704600000002  8.7280689200000001 12.3877065500000008
  1.8633277200000000  1.0739574500000000 15.5924025499999992
  3.7091461600000000  2.9071373500000002 12.0558403300000005
  3.1765590900000000 13.5436897399999996 15.5484807200000006
  2.1457621699999998  4.1900825599999996 13.5971865399999992
  4.5795938700000001  6.2358602100000002  9.6210193299999993
  3.6843824399999998 11.9724897400000003 13.7534045900000006
  3.1583467999999999  4.6104078499999996 15.9149741700000007
  4.9068518299999999  1.9498885699999999 10.1689469399999997
  3.5994921199999999 12.2309778700000003 10.8678636599999994
  0.0917692300000000  6.7251130899999998 16.5954774100000009
  2.4915953499999999 13.4988752099999996 15.8249864599999999
  1.5481532600000001 10.1547832899999992 13.3037489600000001
  5.7397748399999999  1.0473726500000000 12.6946609400000003
  2.9946671999999999  6.7700024799999996 17.1783791299999997
  3.3966775100000000 11.2537738899999997 16.5874944100000015
  5.5724162000000002 13.6215124500000009 13.8703499899999994
  0.1364988700000000 13.9096403199999994 14.5170295899999999
  2.3556879700000000 13.1919908600000007 11.4455913099999993
  0.2413683500000000  2.6848903599999998 13.3826223100000004
  2.7181039899999999  1.3089091600000000 10.9526172600000002
  2.6596840099999999 11.3296629200000005 16.5028262099999985
  8.3670767000000001  9.4328879499999996 12.9677734000000004
  5.1470219500000001 11.3456990900000001 16.1965625899999992
  4.5364954199999996  9.5139668000000004 14.1597501999999995
 14.9274914600000006  4.0954587800000004 16.0149253199999997
  3.4386156699999999  0.7599488300000000  8.7143254399999996
  4.7911565400000002  0.0175135300000000 15.9859812199999993
  5.1472444700000004 14.0568018099999996 11.5521579100000000
  5.3402311999999998  4.8245441500000004 12.4122825199999998
  1.5566917700000000  4.5302785400000003 11.6287326400000008
  5.8928964300000004  6.9906475600000002 16.5256407100000011
  2.1787681399999999  4.5826174200000001 14.2288657399999998
  3.3813662099999999 11.2934004100000003 13.7086464499999998
  7.2899601599999997  1.9224731799999999 15.3586515200000004
 12.0579492899999998 12.3822660800000008 15.0854011200000002
 10.6713417499999998 11.7233707299999992 11.5770797699999992
  0.2850791900000000  0.4099067100000000  9.4425552800000006
 14.6789719499999993  9.8423211700000000 13.1505213899999998
 -0.6792056900000000 13.1649701500000003 10.7407282899999998
  8.0393111099999999  5.7473196900000003 14.7266111300000002
  6.8598647399999999  1.9843716899999999 12.9729826999999993
 12.1965946100000000  4.4437943899999999 12.8108642100000001
  9.0175384100000002  8.9053734099999993 18.1488636499999991
  5.1113091700000002  2.1517475099999999 18.2176905200000014
  6.4748889800000002  4.0163669400000002 11.8866915500000001
  5.4798660799999999  8.4744466500000009 13.7024968999999999
  7.2047032900000003  7.8196706799999998 10.5807654899999992
 11.0564200899999996  7.9380409199999997 11.7786866999999997
  8.4371414799999993  5.0349500400000000 12.5252308200000009
  1.3329479000000000  1.2060196100000000 16.9768226400000017
  9.4819638000000008  4.4243371500000004 17.6065727099999982
  9.5026958300000004 13.9192029500000007 17.5406321399999996
  8.9307699899999999  1.1751595800000001 12.1623863300000004
 -1.2356498000000000 12.7575395399999998 18.2785420499999987
 11.4010137999999994  3.4411883400000001 16.4921378800000014
 13.3613218800000002 14.2805556800000009 14.9902033499999998
 12.3606645799999999  8.8458447400000004 15.7363259600000003
  7.7322648200000001  9.4969456200000000 16.2286484800000004
  6.6007920200000001 11.5594679100000004 15.9354804300000001
  6.6049892999999997 11.5742914300000006 11.6986579400000004
  8.7262520800000001 13.8829049500000004 13.7135366399999992
  5.6864844000000003  4.3365978099999998 17.7428863999999997
  7.0544264800000001  9.3742670399999994 12.2375559200000001
  2.8499023800000001  2.0592371300000001 18.5403864200000008
 10.7875389599999991 10.0116780399999996 17.0779125200000017
 14.5292120400000009  6.6572915100000003 10.0632517700000008
  6.7096687299999997  7.5648606200000001 15.4152665700000000
 14.0824352800000003 10.5566011900000003 10.9513252399999992
  9.6378872799999993  6.7511485899999997 17.5160690099999989
 14.1918729199999998  2.4887363100000002 10.3038961699999998
  7.5328423200000003  4.0633014200000002 16.3114638700000008
 10.1704916200000000 12.0389218899999992 13.8003241100000000
  0.3850084900000000  3.3618706299999999 17.3224045999999987
 13.5937087800000000  2.5869500699999999 12.5300820200000000
 12.2506001300000005  0.8618862600000000 13.3445746900000000
  1.0399559500000000  8.8370533600000005 10.0859405399999993
  2.7432170000000000  3.8291404800000000  8.9907332400000008
  9.2040961600000006  0.5904371500000000 15.5937309699999993
 13.7629618199999992  0.2508690000000000 17.2398992200000016
  9.1442951899999994  6.6880063200000004 11.0346060300000008
  4.5871755299999997 11.1910861599999993 10.5169288600000002
  9.5781698100000003 10.1010443399999996 14.9783509499999994
  3.4530777200000000  9.1445011399999991 10.4547598199999996
  2.6472756500000001  8.2292308399999996 16.6241587300000013
  5.0909800199999999  7.6375986300000003  9.7275278200000006
 11.8343221199999995  9.9021106999999997 10.7550572800000008
 12.9376104600000001  6.5120631800000002 11.8156412999999993
 11.2557262100000006 12.3080301900000002 17.2804496699999994
 10.7625928099999992  8.3457641900000006 14.0865440500000005
  0.0961908100000000 11.2894391699999996 17.0641330099999990
 13.6136031200000005 10.6687995299999994 15.0825381299999997
 12.9294034199999999  2.3554550900000000 17.8969580499999985
 10.0258121300000003  3.2972077500000001 12.7941150399999994
  1.9766473800000000  4.2052027100000000 18.8289613799999991
  8.6286492900000002 12.4639205799999999 10.7564189999999993
 10.1690491600000001  6.4628473099999999 15.2873194500000000
 10.7095374700000008  2.0821367000000000 14.6950999299999996
  5.9613480299999999  0.5480640800000000 16.7515281400000013
 13.6330991200000007  6.9002365699999997 15.5458776200000006
  9.6978543100000003 -0.0511471500000000 10.3177768400000005
  7.2948112800000002 13.2714499999999997 17.3659676699999999
  3.4844781299999998  1.7753713099999999  9.7800682900000009
  3.5177768500000002  5.0606993899999999 17.2889439600000010
  1.2098809399999999  9.5085817499999994 17.9305180399999990
 11.7390549600000007 13.8678866900000006 11.4836994600000004
 12.1079377800000003  5.1648421200000003 15.0749192000000001
 -0.1492079900000000  7.4831162000000004 13.3996154399999998
  6.7100239999999998 12.6686591499999999 13.8169164500000008
  1.1133037600000000 13.5226488099999997 12.1800910299999998
  0.9286876800000000  4.4811487300000001 10.2677453599999993
