 H Si 
 1.0000000000000000
    14.5733989905969228    0.0000000000000000    0.0000000000000000
     0.0000000000000000   14.5733989905969228    0.0000000000000000
     0.0000000000000000    0.0000000000000000    7.9132071751391617
 H   Si 
  17  63
Cartesian
  8.0611800000000002  0.3646570000000000  0.4941740000000000
 11.1047999999999991 14.2216000000000005  1.0719900000000000
 11.3539999999999992  3.0348199999999999  1.8863799999999999
  9.4793199999999995  1.4133000000000000  7.0664499999999997
 10.8440999999999992  0.3468900000000000  0.9613920000000000
  8.5747599999999995 14.6092999999999993  0.9148220000000000
  9.3931900000000006  1.5011900000000000  3.1110600000000002
  9.0052699999999994  2.4199199999999998  5.1951999999999998
  9.9527500000000000  1.8261600000000000  2.7544400000000002
 10.2246000000000006  1.0999500000000000  6.9644000000000004
 12.2922999999999991  1.1257500000000000  4.0563099999999999
  9.6921499999999998  2.5814300000000001  4.9318299999999997
  7.6724100000000002 12.3066999999999993  1.1151199999999999
  8.5272000000000006  3.7111299999999998  2.9766100000000000
  6.5023499999999999  2.5989700000000000  7.2344799999999996
  9.6560799999999993  2.8690699999999998  7.6790599999999998
 10.1212999999999997  3.5037099999999999  7.5326100000000000
  0.9920120000000000  8.2100100000000005  4.1327299999999996
  0.5127210000000000  1.6140699999999999  5.5650599999999999
 11.7385000000000002  7.8305400000000001  5.1924700000000001
  2.4741700000000000  0.5128610000000000  5.3340600000000000
 12.1820000000000004  8.0210799999999995  2.8967499999999999
  5.3551099999999998  5.1005900000000004  6.4835099999999999
  1.9928399999999999 13.8821999999999992  3.1407400000000001
  5.1831699999999996  2.8117299999999998  6.9916200000000002
  8.5413499999999996  9.2312399999999997  1.5329100000000000
 11.9886999999999997 10.4038000000000004  2.9519799999999998
 13.9536999999999995  8.8290400000000009  5.7723500000000003
  7.9515200000000004  7.4676600000000004  6.0708299999999999
 14.0969999999999995  8.8271300000000004  0.1243560000000000
  6.7909800000000002  6.4872199999999998  0.0236165000000000
 14.3574000000000002  0.9452199999999999  7.7046999999999999
 13.3592999999999993  4.8521500000000000  4.1098900000000000
 12.6418999999999997  3.8011900000000001  2.0614699999999999
  3.3308200000000001  0.0388894000000000  1.2828400000000000
  5.2683000000000000  8.0322399999999998  1.2457300000000000
 14.1517999999999997  6.7776899999999998  2.9043199999999998
 13.7003000000000004  1.1050100000000000  3.6869299999999998
  4.4273800000000003  3.2930000000000001  3.4615200000000002
  1.9066700000000001  3.5951200000000001  1.4325399999999999
  6.3334299999999999  8.7291399999999992  4.9287200000000002
 12.3627000000000002  5.4088700000000003  0.2502700000000000
 14.2464999999999993  6.4597699999999998  0.6405400000000000
  1.0364100000000001 11.8889999999999993  7.3301800000000004
 13.9778000000000002 13.3680000000000003  0.5071740000000000
 14.3671000000000006  2.3142700000000000  1.7519600000000000
  4.3054500000000004 12.1941000000000006  5.8035800000000002
  4.8655099999999996 12.9425000000000008  2.4105500000000002
  8.1651500000000006  5.1446800000000001  3.3122300000000000
  6.0206700000000000  5.2357800000000001  4.1500700000000004
  7.8491099999999996 10.2338000000000005  3.5067200000000001
 10.4718999999999998  9.0447900000000008  0.3364650000000000
  2.4415100000000001  4.3883299999999998  3.6896200000000001
 14.0190000000000001 11.3015000000000008  3.6499899999999998
 10.8742999999999999  6.9143200000000000  1.3101499999999999
 14.0365000000000002 11.1988000000000003  5.8968900000000000
  1.4333000000000000 10.3407000000000000  2.9379800000000000
  5.3603899999999998 13.9909999999999997  4.5234699999999997
  9.8876200000000001 10.6639999999999997  4.4377000000000004
  3.4948000000000001  8.6482899999999994  7.6722799999999998
 12.4376999999999995 12.2228999999999992  7.1936299999999997
  3.1439200000000000  6.3549499999999997  6.7609899999999996
 11.6195000000000004  5.4914399999999999  5.7499099999999999
  2.8091800000000000  6.6949199999999998  4.4528200000000000
 14.3628999999999998 13.4199000000000002  2.8896700000000002
  3.9788399999999999  2.3512800000000000  1.1468700000000001
  6.5946699999999998  9.8219300000000000  0.3676190000000000
  4.5236900000000002  1.5608200000000001  5.1121400000000001
  4.9858099999999999  7.3525499999999999  3.4898199999999999
 12.2959999999999994 10.2241999999999997  0.7615740000000000
  9.9952199999999998  8.9765300000000003  6.1045900000000000
  1.5483400000000000  9.8565900000000006  0.6194830000000000
  5.0853799999999998 10.0142000000000007  6.4858300000000000
  2.7392300000000001 13.4936000000000007  7.1738499999999998
  3.1292499999999999 11.8018999999999998  3.7597900000000002
  0.7771560000000000  3.9334500000000001  5.4184700000000001
  8.5322399999999998  6.7910800000000000  1.7861600000000000
  1.3450599999999999  5.0804799999999997  7.4528299999999996
  6.7281100000000000 11.5806000000000004  1.9268900000000000
  9.2557799999999997  5.6511100000000001  5.3482200000000004
