 H Si 
 1.0000000000000000
    14.5307357155388193    0.0000000000000000    0.0000000000000000
     0.0000000000000000   14.5307357155388193    0.0000000000000000
     0.0000000000000000    0.0000000000000000    7.6517259819296495
 H   Si 
   3  58
Cartesian
 10.4817999999999998  8.1904100000000000  1.1431100000000001
  0.1118330000000000 11.2757000000000005  1.5439499999999999
  9.5655099999999997 13.9246999999999996  3.0167799999999998
  2.7158400000000000  3.9508899999999998  0.9996119999999999
  7.1756900000000003  3.5182699999999998  6.7215999999999996
  5.5393600000000003  1.9169099999999999  6.8772000000000002
  4.2366799999999998  7.1506200000000000  2.8080300000000000
  3.3927399999999999 12.7477999999999998  4.5160999999999998
  4.0879300000000001  2.1830699999999998  1.1606900000000000
 14.1437000000000008  2.4928900000000001  3.0560700000000001
  1.2730399999999999  4.0411200000000003  2.9476900000000001
  7.5400099999999997  6.9314799999999996  1.0315200000000000
  3.2934000000000001 14.4505999999999997  0.5368100000000000
  9.3425899999999995  2.3354200000000001  6.9239400000000000
  4.3025799999999998  5.8019400000000001  0.8991290000000000
  1.3410899999999999 11.9951000000000008  1.0938500000000000
 10.4662000000000006  3.4210799999999999  0.8911620000000000
  2.6320199999999998 14.5164000000000009  5.8301600000000002
  2.3399899999999998 13.5055999999999994  2.4598499999999999
  0.6901550000000000  7.9800300000000002  2.2168700000000001
  6.6182200000000000 14.2838999999999992  6.7980799999999997
  1.1190300000000000  0.3709380000000000  3.8961000000000001
 12.9021000000000008  3.1655600000000002  5.1172599999999999
  9.7588100000000004  6.8614699999999997  3.8917400000000000
  6.4808500000000002  8.0616299999999992  2.7882199999999999
  6.9342199999999998 10.4034999999999993  2.6407200000000000
  0.0520588000000000  5.9478700000000000  6.8776099999999998
  9.7179599999999997  7.0810800000000000  1.6759100000000000
  7.5103099999999996  7.1475499999999998  4.5870499999999996
  4.5669700000000004  7.1888500000000004  6.6363300000000001
  5.3111699999999997  1.9191800000000001  3.1933600000000002
  5.4735100000000001 13.4466000000000001  0.9611780000000000
  9.2871799999999993  2.7257500000000001  2.8270900000000001
  6.9430199999999997  3.6486299999999998  2.9169100000000001
  5.8314700000000004 13.1745999999999999  4.6705899999999998
 12.7716999999999992  2.8815100000000000  1.1943999999999999
  5.6757499999999999 11.1408000000000005  0.8703970000000000
  0.8952990000000000  7.9595700000000003  7.5853900000000003
  6.5579799999999997  4.7702000000000000  0.9854280000000000
  6.5626300000000004 10.2241000000000000  6.5591100000000004
 14.2141999999999999  5.9258699999999997  2.7567100000000000
 13.1099999999999994  5.2578300000000002  0.9239570000000000
  6.8387200000000004  7.8748300000000002  6.6381500000000004
  5.5807900000000004 10.8315999999999999  4.6704900000000000
  4.4673699999999998  5.6911899999999997  4.6657900000000003
  2.6958299999999999  4.0617099999999997  4.8384400000000003
  6.5551000000000004 14.4960000000000004  2.8287499999999999
 10.8623999999999992  5.5326800000000000  0.2150680000000000
  3.9587900000000000  2.0501499999999999  5.0949700000000000
  1.2136899999999999  3.9617800000000001  6.8162300000000000
  8.8766099999999994  0.4177380000000000  2.1050300000000002
  2.7495799999999999  8.9602400000000006  2.7196400000000001
 14.0355000000000008  2.3608500000000001  6.9597100000000003
 11.0527999999999995  5.4933699999999996  5.2280800000000003
  6.6887200000000000  4.9416000000000002  4.7190399999999997
  3.3452099999999998 10.3689000000000000  0.9276430000000000
  3.1573099999999998 10.2706999999999997  4.7603900000000001
  8.9377899999999997  0.0918437000000000  7.3081600000000000
  2.8048099999999998  9.0528099999999991  6.7686200000000003
 13.4274000000000004  5.5995999999999997  4.8730700000000002
 10.4946000000000002  3.2088600000000000  4.9579100000000000
