 H Si 
 1.0000000000000000
    14.5779962970727457    0.0000000000000000    0.0000000000000000
     0.0000000000000000   14.5779962970727457    0.0000000000000000
     0.0000000000000000    0.0000000000000000   27.7182805000000023
 H   Si 
   5  86
Cartesian
  6.4493078500000003  6.3998435599999999 17.8585419700000010
  4.5606174599999996  3.6070701199999999 18.1944260500000006
  5.8983328300000002 14.3509465800000005  9.9472682199999998
 13.0491902000000000  7.0113704700000001 13.2705461400000004
  1.4546886299999999  5.9948724999999996 17.2398818200000008
  4.2470847000000003  4.1886460999999997 15.1297269300000004
  9.2367318800000007  8.4144773399999995 11.8429149000000002
  6.1790515499999996  4.5682032799999996 11.0152883599999996
 14.5231594800000003  2.9096435999999999 11.0981960500000003
  4.8760577700000001 12.3122846500000005 12.2690108999999996
 11.9362379099999991  0.3640030100000000 15.2857157699999995
  6.3520757799999998  5.0478107400000001 14.9760758299999992
 10.4721632299999996  1.0986485600000000 13.4973365800000007
  3.1683761399999999  0.6300723600000000 10.1351930600000006
  8.0839716599999996 11.0245016699999994 17.2175493199999998
 13.4686139699999998 11.3763567400000003 13.9892103500000005
 12.7317399200000008  5.8332252100000002 12.4010267200000008
  7.3135771099999998  9.5788046599999994 12.2478736900000005
 -0.2096582600000000  0.9584075300000000 12.2708113000000001
  1.9608266700000001  0.1097991200000000 11.9856149900000002
  2.4931986899999998  9.8525214699999992 13.7786924899999992
 -0.9839293400000000  9.1624582700000001 17.2748037200000013
 14.1775343300000003  0.4627955600000000 14.5627015499999999
 11.7072532299999992 13.0593289800000001 16.7669058799999995
  6.6991145300000001  5.9819724599999997 12.8255534499999992
  0.2551748700000000  4.0476038900000004 14.9906252700000007
  7.8949130800000002 10.5345261699999995 14.2527559099999994
  4.1075632600000000 14.4106352999999991 15.5977794099999993
  3.7209582600000002  4.1224613999999997 11.3720756200000004
  5.9979324600000004  1.6555419800000000 12.7328818300000002
  7.7166580099999997  2.8003283200000002 11.5924418300000003
  9.5148739300000003 12.6693291000000006 16.4186609799999985
  5.2511713300000000  8.8108741100000003 16.2532541200000011
  5.7027195099999997  1.0025831599999999 16.7441583200000004
  1.2041046300000000  1.9370438699999999 15.3912948099999998
  2.0951230700000001  7.5638052599999996 11.0959760799999998
  4.1064185499999999  2.8506845500000000 13.2586881999999999
  9.4521587199999999 12.2767676500000000 14.1394426000000006
  6.9380401999999997 11.7284720999999994 11.4183260000000004
  0.2234163100000000  9.4380154800000007 13.5084748999999995
  0.8025369000000000 12.6827503200000002 11.7634530500000007
  8.7003046299999998  7.1369949200000002 15.7999877600000005
  2.0142977100000001  1.7939539099999999 17.5660295700000013
  4.0821383500000001  8.2255560499999998 14.4009681100000009
 -0.0573141800000000  8.0452025099999993 15.3674421700000003
  2.3719013400000000 14.1371087600000003 17.1273523099999991
 11.1403524500000000  9.5501576499999992 12.4843471000000008
  3.3635204100000000 10.5701171200000008 11.6782181699999992
  6.5183601500000004  6.8895088400000004 16.4561821700000017
  9.8492654000000002  5.6955217400000002 17.2696575900000013
 13.5986143700000000 13.8426380000000009 10.9512025099999999
  5.1842091699999999 14.4915804599999998 11.2821716100000007
  7.9938514500000002  3.3287239099999999 15.1527887200000002
  7.7297190000000002 13.9336031899999995 11.5684564800000000
  2.4140829899999998 11.7412061699999999 15.1066409700000008
  3.0470333500000000  6.1198789400000004 14.4891971399999999
 12.2209707299999994  2.7930384199999998 10.4661468299999996
  2.8586540399999998  1.0452698899999999 13.9580445199999996
  8.5373472300000000 14.3611277400000006 13.7604299700000006
  0.2889006800000000  9.0102531399999997 11.2186583500000001
  6.1814332500000004 10.8989927400000006 15.7524618000000007
 10.9890180900000001  4.7556917399999996 10.3587925500000004
  2.2000005900000001  5.6592337700000002 12.3332451600000006
  4.1390867800000004  2.7771038600000000 17.0331076099999983
  1.1603204700000000  6.0925817899999997 15.7891249200000008
  8.6932016700000005  1.0871652800000000 10.2819762699999995
  0.6040856500000000 12.9016202999999994 14.1141440300000003
  1.3008271100000000 12.1042503600000000 17.1141263899999991
  5.5297670800000001  8.0250749900000002 12.5185459600000009
  6.9878252900000000  1.2377817400000000 14.8261491599999999
 12.9897882500000001  3.8986744799999999 16.3372633500000006
 10.8894290100000006  0.9510670900000000 11.1733906100000002
  4.6576007099999996 12.3717847600000006 14.6883013299999998
 11.3987046400000001  2.3274492699999998 16.4073141299999996
  9.1353603000000003  9.3915303300000001 15.8645685099999998
 12.6094847800000007  8.6321270800000001 10.8276699399999998
 11.5059012500000009  5.4954697599999998 15.7127157499999992
 11.4348831000000004 13.2708220000000008 10.8158228100000002
  4.1208840300000000  8.5582008700000003 10.7304671799999998
 12.5769060899999996 10.9665290199999994 16.0633748400000016
 14.6835033300000006  4.5794358400000004 12.6973620199999999
 12.3358705299999993  7.6524344600000003 15.9111116100000007
 12.5893002400000000  6.4169023500000000 10.1647628799999996
 11.4143715199999995 11.8790997100000002 12.7484659100000002
  8.9064778899999997  6.7169978199999996 13.3821996900000002
  1.4407574700000001 10.9411960500000003 10.4524808300000007
 10.7074079500000003  5.1784950299999997 13.4330420499999992
  9.4186512499999999  3.2222482100000001 13.3229092799999993
 11.2386288400000005  9.3994087200000003 14.9236449800000006
  2.2438672000000000  2.7365685300000000 10.1867350800000001
  9.4440966399999997  3.4423064900000000 16.9193483200000010
