 H Si 
 1.0000000000000000
    14.5768472422990421    0.0000000000000000    0.0000000000000000
     0.0000000000000000   14.5768472422990421    0.0000000000000000
     0.0000000000000000    0.0000000000000000   28.1579509999999971
 H   Si 
  45  77
Cartesian
  3.1537099999999998  4.1443099999999999 13.2397510000000000
  3.2673999999999999  7.4751099999999999 15.7474910000000001
  3.8117600000000000  9.8184199999999997 15.4441609999999994
  1.3333600000000001  6.8446499999999997 13.6288509999999992
  1.6722999999999999 12.2211999999999996 13.8220709999999993
  0.1272160000000000  8.4829699999999999 16.9853810000000003
  4.4075800000000003  3.8379300000000001 11.5135410000000000
  4.6974999999999998  6.8061299999999996 12.9746810000000004
  2.2481599999999999  8.6394199999999994 13.0486210000000007
  5.3230700000000004 14.2645000000000000 11.3211010000000005
  1.1783500000000000 14.3617000000000008 12.9119209999999995
  2.7272200000000000  8.3177500000000002 12.5851609999999994
  2.2444000000000002  1.3021700000000000 14.8533310000000007
  3.4361000000000002  4.7086399999999999 13.5340710000000009
  2.9824000000000002 13.9369999999999994 14.7235709999999997
  1.3428199999999999  4.8789800000000003 13.5601509999999994
  4.1801700000000004  6.2406300000000003 11.5304810000000000
  3.5301900000000002 10.6626999999999992 13.5379609999999992
  3.9146000000000001  2.8849200000000002 15.3568709999999999
  3.6247199999999999  0.6193410000000000 12.0483010000000004
  3.1096599999999999 11.3097999999999992 11.5485710000000008
  1.7563500000000001  6.3963400000000004 15.8354309999999998
  2.6814200000000001 14.0076000000000001 15.4333709999999993
  1.2166500000000000 10.0816999999999997 13.9934709999999995
  5.2870100000000004  1.5628400000000000 12.7828009999999992
  4.5558600000000000  5.3808800000000003 14.8912110000000002
  3.0907200000000001 11.8602000000000007 15.7249309999999998
  5.4047900000000002 14.0206999999999997 13.7416210000000003
 -0.0855209000000000 13.3752999999999993 14.1109609999999996
  3.1732600000000000 13.3747000000000007 12.2530210000000004
  0.4918360000000000  2.9295700000000000 13.7598810000000000
  2.2742700000000000  2.4869500000000002 12.9315409999999993
  2.2439200000000001 11.6530000000000005 15.7552610000000008
  8.2229600000000005  9.2793899999999994 12.8533010000000001
  4.5091799999999997 11.4270999999999994 15.6252209999999998
  4.4129100000000001  8.9735999999999994 13.6328410000000009
 14.0935000000000006  4.0084200000000001 15.2801310000000008
  3.6617799999999998  0.3650660000000000 10.0000000000000000
  4.5030500000000000  0.4364850000000000 15.1830010000000009
  5.6902699999999999 13.7268000000000008 11.0138630000000006
  5.7588299999999997  4.9880100000000001 12.5215409999999991
  1.3615100000000000  5.2656599999999996 11.9978710000000000
  5.3523899999999998  6.6675300000000002 16.3779910000000015
  1.0534100000000000  4.5715199999999996 14.1400509999999997
  2.8918400000000002 10.5993999999999993 13.9858809999999991
  7.0046499999999998  2.1507600000000000 14.9199409999999997
 11.7870000000000008 12.3910000000000000 15.2792110000000001
 11.3434000000000008 11.9124999999999996 11.7873809999999999
  1.0829000000000000  1.1726600000000000 10.1751064400000004
 14.3985000000000003  9.8519100000000002 13.6000610000000002
  0.8008880000000000 12.2985000000000007 10.5209100000000007
  8.1623500000000000  5.8425599999999998 14.8999009999999998
  6.5634300000000003  2.1456300000000001 12.6760110000000008
 12.3623999999999992  4.5537299999999998 13.0702110000000005
  6.9667599999999998  9.3873700000000007 18.0469210000000011
  5.0489600000000001  1.8929300000000000 18.1461509999999997
  6.9296499999999996  4.1997499999999999 11.9176310000000001
  5.4687299999999999  8.0027299999999997 13.4933409999999991
  7.9187200000000004  8.2379300000000004 10.2969150000000003
 11.2680000000000007  8.3702500000000004 12.4506809999999994
  8.7209599999999998  5.4273699999999998 12.7386210000000002
  1.5415200000000000  1.6663600000000001 16.1745909999999995
  9.6145899999999997  3.4856699999999998 17.5513809999999992
  8.9890200000000000 14.2355000000000000 16.5586309999999983
  8.0420700000000007  0.7177170000000000 11.5358009999999993
  0.6297900000000000 13.1513000000000009 17.9999910000000014
 11.1600000000000001  3.0001300000000000 16.0398910000000008
 13.3798999999999992 14.0436999999999994 14.9569410000000005
 12.4809999999999999  8.7464899999999997 16.2929309999999994
  7.1877000000000004  9.5739599999999996 15.8226610000000001
  6.0205700000000002 11.4871999999999996 15.4745410000000003
  6.3864799999999997 11.2047000000000008 11.7005009999999992
  8.3826000000000001 13.6224000000000007 13.2066710000000000
  5.8342999999999998  4.0072299999999998 17.3689609999999988
  6.9567699999999997  9.1221899999999998 12.1374209999999998
  2.7599700000000000  1.6026000000000000 18.1579510000000006
  9.8235700000000001 10.8773000000000000 17.6959909999999994
 14.0820000000000007  6.8310399999999998 10.5121500000000001
  6.3634300000000001  7.3252699999999997 15.5376809999999992
 14.4590999999999994 10.2071000000000005 11.2383109999999995
  9.9484899999999996  7.1725000000000003 17.8289410000000004
 14.2946000000000009  2.9156200000000001 10.6298200000000005
  7.7607100000000004  3.9111899999999999 16.1191309999999994
  9.9556000000000004 12.0571999999999999 13.7390609999999995
  0.5790410000000000  3.7542100000000000 16.2734309999999986
 13.8409999999999993  2.7226900000000001 12.9949610000000000
 12.4524000000000008  0.9423220000000000 13.4770509999999994
  0.9189530000000000  8.5259400000000003 10.3132789999999996
  3.6804800000000002  3.3378399999999999 10.4126320000000003
  8.9022699999999997  0.7335180000000000 14.6038809999999994
 14.3462999999999994  0.4560530000000000 16.8280110000000001
  9.7240099999999998  7.1823300000000003 11.3445610000000006
  4.2936500000000004 10.8941999999999997 10.6515039999999992
  9.2964599999999997 10.3804999999999996 15.3992109999999993
  3.2409500000000002  8.6190899999999999 10.5135349999999992
  3.3875600000000001  8.7936099999999993 16.4286010000000005
  4.1956199999999999  6.7077400000000003 10.1964801000000005
 12.2515000000000001  9.9220199999999998 11.0774550000000005
 13.0536999999999992  6.6947099999999997 12.5636010000000002
 10.7068999999999992 12.9187999999999992 17.2263809999999999
 10.6953999999999994  8.6583699999999997 14.7159910000000007
  0.6743200000000000 11.3312000000000008 16.5896210000000011
 13.4314000000000000 10.7611000000000008 15.5353910000000006
 12.6554000000000002  1.9623800000000000 17.5171010000000003
 10.3316999999999997  3.7086399999999999 12.3973309999999994
  2.2349100000000002  5.2513199999999998 16.5712609999999998
  9.6495499999999996 12.7768999999999995 10.3991950000000006
 10.1186000000000007  6.6288499999999999 15.5975909999999995
 10.6073000000000004  1.9995300000000000 13.9244909999999997
  5.6784499999999998  0.7772740000000000 16.0722009999999997
 13.4545999999999992  6.6951999999999998 15.9498909999999992
 10.1508000000000003  0.4596540000000000 10.6785530000000008
  6.7657499999999997 13.3391000000000002 16.6194610000000011
  2.7418700000000000  1.7639300000000000 11.7641109999999998
  4.1922800000000002  4.2662000000000004 15.8282209999999992
  1.3959500000000000  9.3323300000000007 17.5016409999999993
 12.2020999999999997 14.1875999999999998 11.6474010000000003
 11.8765000000000001  5.1054500000000003 15.2873310000000000
  0.0935947000000000  7.3978799999999998 13.9590910000000008
  6.2083700000000004 12.7020000000000000 13.4647810000000003
  1.7275600000000000 13.0260999999999996 12.5739809999999999
  0.8571240000000000  4.9488700000000003 10.6171120000000005
