 H Si 
 1.0000000000000000
    14.5825907057694035    0.0000000000000000    0.0000000000000000
     0.0000000000000000   14.5825907057694035    0.0000000000000000
     0.0000000000000000    0.0000000000000000   11.0915037947438062
 H   Si 
  36  90
Cartesian
  5.2507500000000000  7.5714199999999998  5.2453300000000000
  6.8682100000000004  4.8293499999999998  5.7986899999999997
  9.0003200000000003 10.2568000000000001  2.2667600000000001
  7.2718400000000001  4.5885199999999999  6.4639100000000003
  8.3270900000000001  5.9014699999999998  1.1793499999999999
  7.9501400000000002  5.5312299999999999  8.6033299999999997
  5.9071600000000002  4.4728700000000003 10.0731999999999999
  9.2695600000000002  8.3906399999999994  1.9993300000000001
  7.3982799999999997  3.6808399999999999  0.1710780000000000
  6.1245399999999997  7.8803799999999997 10.1061999999999994
 11.4551999999999996  9.6177499999999991  4.6920900000000003
  7.6462100000000000  6.7312399999999997  4.2749899999999998
  9.2366600000000005 10.0548000000000002  9.1739499999999996
  7.8809899999999997  3.7123499999999998  4.2566300000000004
  7.1569099999999999 10.4745000000000008  4.9456800000000003
  8.1022800000000004  7.3559400000000004  7.0361399999999996
  7.3158599999999998  6.2973499999999998  4.7978500000000004
  7.7552599999999998  6.8722599999999998  6.6092300000000002
  6.6423899999999998  7.4622000000000002  0.7369090000000000
  6.1634000000000002  7.2224899999999996  1.2042400000000000
  6.1811600000000002  4.9329000000000001  3.1025200000000002
  4.1765299999999996  5.7177699999999998  6.2649299999999997
  5.4752200000000002  8.1420800000000000  5.6961199999999996
  8.9454100000000007  1.9744100000000000  6.7324400000000004
  4.5682200000000002  7.6923899999999996  1.7901499999999999
  7.9058700000000002  9.2209900000000005 10.8765999999999998
  8.5733800000000002  5.5780700000000003  1.8411800000000000
  9.7398699999999998  8.2765500000000003  1.4528000000000001
 10.1821000000000002  4.5807000000000002 10.5094999999999992
  7.6099500000000004  6.0131399999999999  9.0464199999999995
  3.6053899999999999  7.2600600000000002  9.5561100000000003
 10.7956000000000003  6.7320000000000002  3.3673400000000000
  7.6732800000000001  8.7277400000000007  8.3004899999999999
  6.1888899999999998 10.2609999999999992  1.6638800000000000
 10.4265000000000008  4.6296700000000000  3.3027700000000002
  5.9126000000000003  2.4295900000000001  7.3265700000000002
  1.4573700000000001  5.9623100000000004  5.1548400000000001
  7.4096099999999998 14.2594999999999992 10.5716000000000001
 10.4319000000000006 12.8275000000000006  8.2628699999999995
 13.3201999999999998  5.5894399999999997  2.6377000000000002
 14.3444000000000003  7.7171099999999999  2.6974499999999999
  3.0547900000000001 12.8287999999999993  6.2222700000000000
 11.3100000000000005 13.7085000000000008  0.1948740000000000
  9.8931900000000006 11.4220000000000006  2.4431699999999998
  6.0843900000000000 11.5060000000000002  5.1678100000000002
  6.1010200000000001 12.6973000000000003  3.1327799999999999
  5.8958000000000004  1.3940999999999999  6.2112900000000000
  3.1180900000000000  7.3639299999999999  1.6435999999999999
 14.2347999999999999  2.3744299999999998  4.2721099999999996
  4.4529199999999998  4.1085799999999999 10.3323000000000000
  2.9258899999999999 10.6555999999999997  1.8273600000000001
  7.5725400000000000  2.8461799999999999  1.3545100000000001
  2.7848099999999998  4.2789400000000004  8.6138800000000000
  8.4218399999999995 13.2406000000000006  2.8246799999999999
  2.3349400000000000  9.8809600000000000  4.1474900000000003
 13.0977999999999994  8.4365199999999998  4.4509100000000004
 13.8666000000000000 14.2944999999999993  7.9697100000000001
  0.0675364000000000 12.7347999999999999  0.1435030000000000
 11.2820999999999998 11.4129000000000005  0.6148620000000000
 10.8605999999999998  1.2016899999999999  3.5566800000000001
  3.4688200000000000 13.0936000000000003 10.0508000000000006
  3.6644299999999999 10.2112999999999996  8.0629299999999997
  2.2709199999999998 12.6862999999999992  0.9143170000000000
 14.2315000000000005 10.3515999999999995  7.6433099999999996
 14.5036000000000005  6.6490000000000000  6.8778699999999997
  2.6808299999999998  8.3406000000000002  9.3504299999999994
  4.6920000000000002 14.1210000000000004  7.0966100000000001
  1.9272100000000001 14.0198000000000000  4.5832100000000002
  9.2613099999999999  0.0161670000000000  1.0652699999999999
  5.2408099999999997 11.3312000000000008  1.4762400000000000
  1.4944299999999999  5.8298300000000003  9.8026400000000002
  2.1722600000000001  9.0585299999999993  0.3086860000000000
 11.1560000000000006 11.2302000000000000  4.4046700000000003
  4.9603200000000003  0.0491413000000000  2.6812499999999999
 13.8636999999999997  4.5922599999999996  7.9950999999999999
  1.9387399999999999  7.6657000000000002  3.5354199999999998
 10.9047999999999998 12.9327000000000005  5.9480300000000002
 14.5122999999999998  2.4065200000000000  0.0940751000000000
 12.9751999999999992  4.1132999999999997  0.6511090000000000
  2.0979999999999999  1.8814299999999999  1.2084900000000001
 10.5747000000000000 10.6826000000000008  9.4033300000000004
 14.1778999999999993 13.7204999999999995  4.0672300000000003
 13.4817999999999998 11.1852999999999998  1.2785200000000001
  4.1589600000000004  1.8279700000000001 10.7248999999999999
  6.6865300000000003  3.5678999999999998  3.3374100000000002
  0.8214680000000000  2.9613499999999999  9.0010800000000000
 12.9306999999999999 14.3605000000000000  5.9465300000000001
 13.3605000000000000 11.6137999999999995  3.6838400000000000
  3.2000600000000001  3.0583700000000000  4.6383099999999997
  5.1479400000000002  1.8741099999999999  4.1251400000000000
 10.5899000000000001  2.2825099999999998  8.9708100000000002
 14.5192999999999994  9.1560299999999994  0.7634590000000000
 13.0472000000000001  0.7507300000000000  2.7982200000000002
 11.3323999999999998  5.4851700000000001  6.1138500000000002
  2.7059700000000002 14.4705999999999992  2.4144500000000000
 11.4702000000000002  5.4952899999999998  3.8962300000000001
  3.9527899999999998 10.6667000000000005  5.6756300000000000
  7.0642699999999996  8.9186899999999998  9.6321999999999992
  9.7958599999999993  2.1759800000000000  1.5581900000000000
  0.4116400000000000  4.3760800000000000  3.7557200000000002
 13.5318000000000005  8.0356900000000007 10.0458999999999996
 10.9581000000000000  3.4175599999999999 10.9430999999999994
  3.0604300000000002  4.7768199999999998  6.2222499999999998
 14.5768000000000004 10.1522000000000006  5.0088900000000001
  9.4508100000000006 14.4013000000000009  4.6644500000000004
  3.4174099999999998  0.4708960000000000  8.9274799999999992
  0.1401960000000000 12.2543000000000006  8.8296299999999999
 12.2502999999999993  2.1288499999999999  5.3780099999999997
  1.4976000000000000  1.5205000000000000  5.4355200000000004
 12.2851999999999997  9.2780500000000004  8.3665199999999995
  6.5361000000000002 12.4586000000000006  7.2779499999999997
  5.8242200000000004 10.9001999999999999  8.9555299999999995
  0.6591010000000000  8.2502800000000001  8.3232400000000002
 12.3650000000000002  7.5574399999999997  6.5781400000000003
  5.6641700000000004 12.5214999999999996 10.6295000000000002
  2.2692399999999999  3.7386100000000000  2.4586299999999999
 11.5687999999999995  0.1387900000000000  9.1713799999999992
  8.2187900000000003  0.7218630000000000  6.5282099999999996
 13.7957000000000001  5.7856800000000002 10.0470000000000006
 11.7864000000000004  3.5673699999999999  7.2053200000000004
 13.4031000000000002  0.2579890000000000  0.4929300000000000
  2.7883800000000001  5.3162900000000004  0.6718970000000000
  8.2656399999999994 13.7622999999999998  8.3102199999999993
  2.2815200000000000 12.1702999999999992  8.2771899999999992
  5.9909499999999998  0.9907640000000000  0.7267070000000000
  1.2666500000000001  1.0730000000000000  7.8189900000000003
