 H Si 
 1.0000000000000000
    14.5676482755316030    0.0000000000000000    0.0000000000000000
     0.0000000000000000   14.5676482755316030    0.0000000000000000
     0.0000000000000000    0.0000000000000000   27.9492899999999977
 H   Si 
  36  76
Cartesian
 11.7877286500000000  6.2558978500000002 15.7589473000000009
  6.7895085000000002  8.7606119600000003 12.5246521400000006
 15.3730751899999998 10.6981148600000004 17.3200092599999991
 11.4526202999999995  6.8934699400000001 11.7709773700000007
  7.1315043200000003  6.2925532700000000 13.1408714700000004
 13.9087916600000003  8.4001872399999993 12.3232866300000001
 12.6492718899999996  9.0155503199999991 13.6070539499999992
 14.1213974899999997  9.1167802600000005 16.0419329499999996
  0.6616581400000000  7.4513911100000003 10.5782747300000004
  8.9232593799999993  6.8890534700000003 13.7819928500000000
 12.8655620899999992  6.3688764800000000  9.7756465299999995
 14.4722170899999991  6.2686570499999998 15.1296181000000001
  9.1379405899999995  3.9875266500000000 14.4166771100000002
 11.0798235700000003  7.5245418700000002 11.4762862800000001
 12.1917399300000007 10.8089175199999996 12.2250105399999995
 13.3532674500000006  6.8639818000000004 10.0335826899999994
  9.4127057799999996  7.4345291299999996 13.9148289199999997
  9.6979381300000007  9.0419093499999992 11.3999700399999995
 10.1679255600000005  4.4161257799999998 16.2479148900000006
 11.6430092599999995 11.1452775099999997 14.1393914100000000
  8.6747958300000008  9.0049754699999998 18.2416597200000012
  1.8409176000000000  6.7930075800000003 13.3822984700000003
 12.6569547500000006  9.2642347600000008  8.8971605900000004
 15.7710863099999994  3.9392853099999998  9.2704269200000002
 14.5375915100000004 10.7500416100000002  8.7722604499999992
 11.9583787800000003  5.3866338899999997 13.9454434200000001
  7.3630645699999997  8.0866826300000003 15.2493688400000007
  4.1339683699999998  3.5792716499999999 18.7555113800000015
 12.2881006199999998  9.1576716999999999 14.2431979500000008
 10.4511933300000006  8.2469175000000003 16.7936407199999991
  7.9521251599999996  8.2649344700000000 15.7797749799999991
  4.0659700799999996  0.0000451400000000 18.9408358700000008
 11.3835626399999992  6.7574012100000003 16.1319177600000003
  7.6979703199999996  6.0042028700000003 15.8800943100000005
  7.8795443599999997  2.1218881700000001 15.8088326099999996
 13.8736646700000001  6.0212571700000002 12.6247710899999994
  4.4899511099999998  5.7981917699999999 16.0404081400000003
  0.8796148400000000  9.7704289299999996 16.1671616799999995
 13.8055506799999996 13.3241532100000004 11.8533421499999996
  3.3227507200000002  0.1570056400000000 12.9750534799999997
 12.2855433999999999  4.3469362100000000 18.5243161600000015
  5.9881531099999998  3.6603896499999999 14.4746415800000001
 12.1373468199999994 14.7564093199999995 12.5899699999999992
  3.6731151799999999 12.7161394399999992  9.6238186399999996
  1.3120699199999999  2.4688108500000001 17.5146820599999984
  0.2483149100000000  2.0193526500000001 13.7838101599999998
  9.9548312899999996  3.1308239200000001 11.5516223799999995
  4.0770618000000001 14.1706505400000005 17.5070020600000014
  1.4888926499999999  0.1352218800000000 14.3679273500000004
  0.9050682400000000  4.0540931000000002 10.7157652599999995
 10.1691216099999995  3.8123895900000000 17.6236344699999989
  4.8470569499999998 13.1462865400000002 13.6624852400000005
  7.6171144300000000  3.8405882099999999 11.1208698199999994
  6.6241430899999996 10.0521458100000007 13.2422084499999997
  6.0085275800000000 12.7057475400000008 10.0887917599999994
  5.3234183499999999  9.8286669799999995 15.1251202500000002
  9.2284768600000007  9.0600237600000000 16.8793001400000016
  9.3350612000000002 11.1812786600000003 15.9946704400000002
  5.9159265000000003 10.7362138500000004 17.1908690700000015
 10.3859460899999991  0.9100528300000000 11.3201769199999998
  2.1532879100000000  9.5650062100000000 12.2535841500000000
 14.8195658300000002  8.7300334399999997 11.2043960800000004
  5.3648161200000004 11.5889632299999992 12.0192639200000002
  3.5590013699999998 10.7863437900000001 10.8973333900000000
  0.3686400000000000  0.2589745600000000 10.4606471299999999
 13.5759468400000003 12.5084669799999997 15.9222702999999992
  7.5845707600000001 12.2674504700000000 17.1402847200000004
  9.3746855000000000  2.6547464500000002 13.7666379499999998
  7.8428007300000004  1.6550817499999999 17.2395953999999989
  0.6832769500000000  5.1379473100000004 15.7064073000000004
  1.8724845800000001  0.4108369700000000 16.6758904299999990
 14.0980132999999999 -0.0054310300000000 16.8025143999999997
 11.4047591199999996 12.0502291899999996 15.2959424500000001
  8.5550349499999996 13.3354157099999995 13.4298098400000008
  1.8350721699999999  3.7534925600000002 14.1567755399999999
  8.6361303599999992 11.0399207199999996 13.7268425300000008
 13.6222952100000008 10.0565691600000005  9.6992486200000005
  4.2736566900000001  5.8742979399999999 11.7216689100000000
  2.5135240699999999  8.2278854500000005 16.8098985200000008
  6.4818467200000001 14.3455405400000000 16.8340606900000012
  2.8355914100000001  4.0546974599999999 12.0036750300000001
  3.8642509700000001 11.8637615899999993 17.3582895400000012
  1.6792836700000000 10.8508560000000003 14.2020080400000008
  8.8511630199999995 13.7988779800000003 11.1114025099999996
 14.2156816100000007  2.2574702900000001 11.4975417199999992
 10.1551313099999998  1.4541534500000000 17.4746774599999988
  3.8288250800000001  3.5809744499999998 15.3673038799999997
  3.1129816099999998  7.4963984000000004 12.9916164199999997
 12.4675484900000004 11.6043026999999999 10.9991764799999991
  7.0738003699999998  0.1378088700000000  9.9712876200000000
  0.2625926700000000 12.7342623600000007 13.9363818399999992
  8.0148450899999997 11.3490696100000008  9.7576395900000001
  3.1760259799999999  3.7859783000000000 17.6523772500000007
 13.8877567200000005  3.5881032899999998 16.9297022800000008
 12.2583698600000002  3.5787889200000000 11.3131307099999994
 13.2135963000000007  1.8395792799999999 15.5180831500000007
 10.6846724999999996 13.9655518799999996 14.2177767999999993
 10.2504655499999995 12.1163150999999996 10.2567473699999994
 10.8708763400000006  1.4645427900000001 15.2514420699999995
  6.7011591800000003 14.2894634200000006 14.4956498600000003
  2.6981250299999999 14.6175694000000007 10.7132423499999998
  6.3364851299999998  1.8685255800000000 11.3311761999999998
  7.1192260899999997  1.8280741599999999 13.5685387100000003
  7.7616995600000003  3.8351136700000001 18.1418498399999990
  3.9633058200000000  1.9512156700000001 11.6113186200000005
  3.7539355799999998 11.5837970299999995 15.0668289600000005
  4.0480346599999999  7.8976054700000002 15.1059176900000001
 12.5171364199999999  5.4423305500000003 12.5841878699999992
  9.2728341699999994 10.4458057300000000 11.5674545599999998
  6.7181538800000000  4.9631793300000000 16.3099316999999999
  2.3536329700000000  5.9518008499999997 17.1756387299999993
  6.3053038499999996  5.1499916900000002 12.6485939700000003
