 H Si 
 1.0000000000000000
    14.5295791732167459    0.0000000000000000    0.0000000000000000
     0.0000000000000000   14.5295791732167459    0.0000000000000000
     0.0000000000000000    0.0000000000000000   28.7218310000000017
 H   Si 
   5  96
Cartesian
  6.9470499999999999  0.4232780000000000 17.6668710000000004
 12.7703000000000007  8.3599800000000002 15.5798109999999994
  0.2142150000000000 12.5696999999999992 18.2767710000000001
 13.3978000000000002  5.9017900000000001 16.8925610000000006
  6.7586199999999996 13.3088999999999995 12.9735910000000008
  5.7909899999999999 12.8848000000000003 15.8110809999999997
  5.1718799999999998  1.6239500000000000 17.7537610000000008
 14.2792999999999992  4.2354099999999999 10.0000000000000000
  4.2426899999999996  3.3676599999999999 14.0474910000000008
 10.5334000000000003  6.0021300000000002 16.2433610000000002
 14.0541999999999998 12.9849999999999994 15.3600410000000007
 10.7560000000000002  9.9975299999999994 10.4163650000000008
 13.0516000000000005 13.3005999999999993 10.9253570000000000
  4.5886300000000002 10.6684000000000001 18.3844710000000013
  1.6927800000000000 12.0719999999999992 10.2998969999999996
 11.5856999999999992  6.3795099999999998 12.3973309999999994
  4.4200900000000001  4.2943499999999997 10.1694399999999998
  5.5712400000000004  4.9330600000000002 15.1997509999999991
  9.0815000000000001  0.3038060000000000 15.6800210000000000
  7.0275299999999996  7.9315899999999999 10.5675889999999999
 12.9049999999999994  2.0883300000000000 16.4605409999999992
  4.6693899999999999  7.9922399999999998 12.9526509999999995
  0.9031240000000000 11.0007000000000001 12.3409410000000008
  8.3221299999999996  6.0007200000000003 16.4155109999999986
  3.1467600000000000  4.3340899999999998 12.0414510000000003
  7.9524100000000004  4.0878199999999998 17.7972509999999993
  3.9563700000000002  9.4417799999999996 14.6237010000000005
  4.8558399999999997  8.8647299999999998 10.8864409999999996
  7.4727800000000002 13.8106000000000009 16.9129210000000008
  2.5516100000000002 11.1809999999999992 13.9994110000000003
 14.1050000000000004  9.2299000000000007 12.8331909999999993
 13.1054999999999993  1.1033200000000001 11.4532410000000002
  4.4153099999999998  0.5672540000000000 10.1133430000000004
  1.0629700000000000  4.6486700000000001 15.4382110000000008
  7.4904299999999999  5.5623399999999998 14.2952709999999996
  4.0682200000000002 14.3200000000000003 16.7547910000000009
  8.3996999999999993  9.7379700000000007 10.5494459999999997
 10.5795999999999992  9.5220500000000001 14.0388110000000008
  8.0908700000000007  5.3903499999999998 11.8061509999999998
 10.8780999999999999  4.7781200000000004 14.1860610000000005
  1.6071700000000000  0.1718040000000000 13.1651710000000008
  1.4588200000000000  3.0573100000000002 11.0034910000000004
  6.8795400000000004  7.5964499999999999 17.2223010000000016
 14.5076000000000001  5.1433900000000001 17.6140310000000007
  1.8808800000000001  8.4562399999999993 18.2269410000000001
  6.1459799999999998  1.5600900000000000 11.1879709999999992
 10.2966999999999995 13.8137000000000008 13.9795210000000001
 14.4862000000000002  0.4029000000000000 16.2614809999999999
 11.2379999999999995  4.9474000000000000 18.2306109999999997
 10.6465999999999994 11.6786999999999992 15.1792409999999993
  4.5826099999999999  5.3280200000000004 18.7218310000000017
  9.0942799999999995 12.9475999999999996 12.1784409999999994
  2.6318700000000002  2.9825900000000001 15.7453509999999994
 13.7024000000000008  5.5018799999999999 11.9353809999999996
 10.1875999999999998  5.6245099999999999 10.6635779999999993
 11.3520000000000003  1.2589500000000000 13.0656009999999991
 11.9484999999999992 13.9413000000000000 17.9791109999999996
  4.0566199999999997 12.4361999999999995 12.6399810000000006
  0.3859110000000000  1.9916400000000001 12.6696209999999994
  8.8559900000000003  3.7397399999999998 13.6166110000000007
  8.2238500000000005  9.4021600000000003 13.6756410000000006
  5.8212400000000004  1.6595000000000000 13.4392309999999995
  2.6165799999999999  6.6813900000000004 12.7420310000000008
  5.3571999999999997 10.5306999999999995 16.0782309999999988
  8.1076700000000006  0.3233430000000000 11.0312310000000000
 14.3165999999999993  3.8758599999999999 13.6420610000000000
  3.0863100000000001 12.3582999999999998 17.7654110000000003
  1.6141099999999999 11.6638000000000002 16.0654609999999991
  5.6108700000000002 13.7523999999999997 13.7330310000000004
 12.2844999999999995  3.0499100000000001 14.3544809999999998
 10.7955000000000005  1.2727200000000001 17.1679110000000001
  0.4797020000000000  9.7970600000000001 16.8768409999999989
  1.8067299999999999  6.7776600000000000 14.9025809999999996
  3.1968500000000000  7.9521600000000001 16.3267510000000016
 13.1553000000000004  3.5436700000000001 18.3433010000000003
 10.8204999999999991 12.5061000000000000 10.5271980000000003
  0.5817300000000000  7.3910700000000000 11.7107109999999999
  7.7151300000000003  2.0367700000000002 14.7923609999999996
 11.1363000000000003  8.1736599999999999 15.9392209999999999
  9.3945100000000004  2.1538800000000000 11.7943409999999993
  2.8919500000000000 13.8315999999999999 11.3420310000000004
  9.8523300000000003  3.0308999999999999 18.5745709999999988
  7.9155499999999996 12.1152999999999995 18.4092810000000000
  6.5547100000000000  3.0026299999999999 16.4980609999999999
 12.8908000000000005 10.3582000000000001 18.0950510000000016
 14.3866999999999994 13.0509000000000004 12.9674809999999994
  0.0069064800000000  8.3572199999999999 15.0739009999999993
  7.4738300000000004  9.3841400000000004 15.8638910000000006
  3.6160700000000001  3.3806900000000000 17.9578309999999988
 10.5261999999999993  3.2323200000000001 10.0726949999999995
  7.7170899999999998 11.1097999999999999 12.2376410000000000
  2.2789299999999999  0.6328740000000000 15.4399110000000004
 11.8634000000000004  8.8254800000000007 12.2948509999999995
  5.5218600000000002 11.1000999999999994 11.1316810000000004
  4.9238900000000001  6.5884900000000002 16.8385710000000017
  6.6808699999999996  3.8059799999999999 10.7489050000000006
  7.0835299999999997  7.4882799999999996 12.8474310000000003
 10.8251000000000008  9.3686399999999992 17.8267510000000016
 12.3575999999999997 12.1295000000000002 16.6003509999999999
 14.4331999999999994 14.0579999999999998 18.3829409999999989
  9.1427600000000009 10.6963000000000008 16.8598709999999983
