 H Si 
 1.0000000000000000
    14.5653467177202689    0.0000000000000000    0.0000000000000000
     0.0000000000000000   14.5653467177202689    0.0000000000000000
     0.0000000000000000    0.0000000000000000    8.4866601095710852
 H   Si 
  21  67
Cartesian
  5.3961399999999999  9.4174000000000007  0.3362210000000000
  6.5533999999999999  7.4474799999999997  0.5377650000000000
  9.3727900000000002 11.2433999999999994  5.6854699999999996
  5.9597199999999999  9.6137800000000002  0.7703240000000000
  8.4650700000000008  9.9221500000000002  1.1344799999999999
  4.6335100000000002  9.5722000000000005  6.0529200000000003
  6.8677500000000000  8.2336299999999998  2.5029900000000000
  7.2564299999999999 11.8164999999999996  6.7508800000000004
  8.4632699999999996 10.4185999999999996  1.7033900000000000
  7.2245699999999999  7.2314400000000001  6.4339399999999998
  8.2045100000000009  9.2974300000000003  4.3741000000000003
  3.0793800000000000  8.0634499999999996  1.1275800000000000
  8.4445300000000003  9.4367800000000006  7.2019399999999996
  7.1135599999999997  8.8782399999999999  2.7695099999999999
  4.8809300000000002  4.3702100000000002  5.6258800000000004
  6.9765699999999997  7.6557300000000001  5.8374600000000001
  3.7092399999999999  6.9830800000000002  5.3725300000000002
 11.0629000000000008  9.4891400000000008 -0.2067270000000000
  8.1183099999999992  8.7988300000000006  7.0780200000000004
  7.7721999999999998  9.8856599999999997  4.4554400000000003
  7.0407999999999999  6.8780999999999999  0.4406100000000000
  9.5533800000000006  4.1826600000000003  5.3368799999999998
  1.6472199999999999 13.1052999999999997  5.3174299999999999
  2.2258900000000001  4.3353000000000002  2.3380700000000001
  4.5724299999999998  0.7288900000000000  8.3355499999999996
 13.6784999999999997  1.5681400000000001  7.0575999999999999
  4.7774400000000004 13.6334999999999997  2.7238300000000000
 13.8045000000000009 12.4091000000000005  1.9226600000000000
 10.6114999999999995 11.5785000000000000  4.7549299999999999
 13.8115000000000006  7.2209599999999998  3.2397600000000000
  5.8104800000000001 14.1668000000000003  5.0608599999999999
  4.4160800000000000  1.2745200000000001  6.0364000000000004
  3.2157100000000001  0.8150650000000000  2.8935000000000000
 12.1842000000000006  8.7274399999999996  0.3654630000000000
 12.6903000000000006 12.1628000000000007  5.7158199999999999
  9.7384799999999991 13.8179999999999996  4.2360400000000000
 12.3983000000000008  8.0884599999999995  4.9923099999999998
 12.4914000000000005 13.9914000000000005  7.1626899999999996
 12.9560999999999993  1.5965000000000000  1.8849800000000001
  1.1418500000000000  7.4208600000000002  7.2630699999999999
  2.2869299999999999  7.5102500000000001  5.1934600000000000
  1.5105500000000001  9.7421900000000008  4.5415799999999997
  0.6065690000000000  9.0906099999999999  2.5226000000000002
  0.8237130000000000  5.0978000000000003  7.5878300000000003
 13.1321999999999992 10.2886000000000006  2.0337700000000001
  2.3282799999999999  0.4819530000000000  0.9179630000000000
  0.5539600000000000  2.1580300000000001  5.2780699999999996
  1.2400100000000001  5.8659499999999998  3.7732199999999998
  1.1195999999999999 12.1165000000000003  7.3340800000000002
 12.2981999999999996  3.3969900000000002  7.1586900000000000
  2.8163900000000002  4.2017899999999999  8.4760299999999997
  4.1803200000000000  2.9763700000000002  2.8167100000000000
  1.3819500000000000 12.9359000000000002  1.0093900000000000
 12.5258000000000003  4.3223399999999996  5.1047200000000004
 11.2032000000000007  2.3660500000000000  4.6875299999999998
 10.1847999999999992  6.0468599999999997  2.2606500000000000
 10.7352000000000007  0.4912710000000000  5.9289600000000000
 12.4383999999999997 14.0112000000000005  0.9919289999999999
  0.3983100000000000  4.3952700000000000  5.3610499999999996
  7.8164600000000002  0.6757030000000001  5.0162699999999996
 13.5000000000000000  4.6197600000000003  0.3670050000000000
  0.2927870000000000  3.2291099999999999  1.8124600000000000
 14.3126999999999995 10.4399999999999995  6.2292100000000001
  7.5400099999999997  2.7885900000000001  4.2406300000000003
  5.4048900000000000  2.7809300000000001  0.8365480000000000
  1.9337100000000000  8.7507199999999994  0.5991430000000000
  8.1600800000000007  0.4151560000000000  0.8245580000000000
  2.8948600000000000 10.8119999999999994  8.3045299999999997
  7.6133400000000000  2.4957099999999999  1.8558500000000000
 13.5945000000000000  8.4308999999999994  6.9948800000000002
  3.3075199999999998 11.9542000000000002  1.9845600000000001
  9.5657099999999993  3.9302800000000002  1.1689600000000000
 10.9938000000000002  5.9256099999999998  4.4199099999999998
  6.0143100000000000 12.5805000000000007  6.8912899999999997
 13.2855000000000008  0.9913270000000000  4.0620500000000002
 10.0100999999999996  3.3000300000000000  7.4850399999999997
 11.3801000000000005  9.7579899999999995  3.5835800000000000
  4.3076299999999996 11.0230999999999995  6.4167800000000002
  5.2859999999999996  3.1195200000000001  4.8920899999999996
  0.9618460000000000  2.1074700000000002  8.3813999999999993
 12.3007000000000009  6.6296600000000003  1.3766099999999999
 10.2693999999999992 -0.0100313000000000  2.0427200000000001
  3.0753300000000001 11.4382000000000001  4.3735400000000002
  8.8935999999999993  1.1685800000000000  7.2116600000000002
 14.1051000000000002 13.3040000000000003  4.1510400000000001
  6.0797699999999999 13.8271999999999995  0.6748330000000000
  2.3191000000000002  0.6967150000000000  5.0909500000000003
 10.8199000000000005  2.2934100000000002  2.3750100000000001
