 H Si 
 1.0000000000000000
    14.5676482755316030    0.0000000000000000    0.0000000000000000
     0.0000000000000000   14.5676482755316030    0.0000000000000000
     0.0000000000000000    0.0000000000000000    9.6822588564961602
 H   Si 
  36  71
Cartesian
  5.1923899999999996  5.0658000000000003  1.0833200000000001
  4.5457400000000003  6.4501999999999997  8.9665099999999995
  5.5177800000000001  4.5740100000000004  1.5798500000000000
  3.0730499999999998  5.2706499999999998  4.6681600000000003
  2.0962999999999998  5.0624700000000002  0.1533540000000000
  7.7012799999999997  4.2056800000000001  9.4424799999999998
  7.1973700000000003  0.8198750000000000  6.8542800000000002
  5.1335499999999996  1.8128500000000001  1.1877500000000001
  4.0752899999999999  1.6743200000000000  8.8125599999999995
  0.7255640000000000  9.3089099999999991  2.1499999999999999
  2.7381799999999998  4.4836299999999998  6.3353599999999997
  3.2269999999999999  4.4485599999999996  6.9162100000000004
  6.8885800000000001  6.6359300000000001  9.5760400000000008
  5.1755599999999999  3.2520500000000001  3.9791500000000002
  2.3288899999999999  3.3598900000000000  2.9865499999999998
  1.8232200000000001  2.9212899999999999  2.6336300000000001
  1.0013099999999999  5.2495300000000000  2.5061300000000002
  4.4789500000000002  0.9959440000000001  4.9762199999999996
  1.0002300000000000  2.6505399999999999  4.7551199999999998
  1.4017100000000000  5.4242100000000004  1.8554200000000001
  3.1921200000000001  5.7106599999999998  4.1336800000000000
  5.8081300000000002 14.3290000000000006  8.9049600000000009
  5.5800999999999998  4.5114799999999997  6.2168799999999997
  2.3548000000000000  7.7088799999999997  0.1244400000000000
  1.6320399999999999  2.8380100000000001  8.0028799999999993
  4.1368900000000002  6.3667800000000003  9.5524199999999997
  1.5905400000000001  2.1514199999999999  7.6910999999999996
  5.1000500000000004  3.9077400000000000  3.7242999999999999
  5.8657000000000004  1.8708700000000000  1.2300500000000001
  0.7721920000000000  2.9245500000000000  0.8719220000000000
  5.1674699999999998  4.0964799999999997  5.7573699999999999
  4.4875100000000003  1.5111200000000000  5.4780600000000002
  6.6832900000000004  1.3058399999999999  3.1698300000000001
  2.9464399999999999  0.2759330000000000  1.3075399999999999
  4.3947300000000000  1.5641400000000001  8.1434400000000000
  2.7809499999999998  4.9884000000000004  9.5743700000000000
 14.3828999999999994  9.9824199999999994  7.3194999999999997
 12.0899999999999999  3.9379800000000000  0.7790950000000000
 10.9007000000000005  2.8215300000000001  3.3887499999999999
  6.9927999999999999  9.0985899999999997  3.3729000000000000
 11.7535000000000007  5.8109400000000004  2.0870099999999998
 13.9326000000000008  2.4914100000000001  0.7303490000000000
  8.8425899999999995  9.0937300000000008  0.3130130000000000
 10.7059999999999995  8.8109999999999999  8.6834500000000006
  7.5079300000000000  8.4663199999999996  6.7753399999999999
 11.1777999999999995 10.9244000000000003  7.8129000000000000
 13.7218000000000000 12.9260000000000002  0.2278910000000000
  8.9538100000000007  4.2740200000000002  0.5816700000000000
 10.0383999999999993 14.4831000000000003  7.1462000000000003
  3.4679899999999999 11.3552000000000000  6.7530200000000002
 11.6379999999999999 14.4794000000000000  3.1995900000000002
  6.7931900000000001 12.8528000000000002  3.7135099999999999
  5.0926000000000000  9.4395000000000007  9.3957899999999999
 10.7855000000000008  4.8492699999999997  8.7035099999999996
 13.1206999999999994  1.8613100000000000  3.0229100000000000
  9.5908400000000000  0.9640190000000000  2.4758700000000000
 12.9261999999999997  4.2494100000000001  5.9208699999999999
  7.7929399999999998  0.4234560000000000  3.7528700000000002
 13.5561000000000007  0.7109510000000000  8.7884300000000000
  9.4181699999999999  7.3002000000000002  6.0573300000000003
 14.1658000000000008  2.3553600000000001  5.1356500000000000
  8.7539800000000003 11.5228999999999999  0.5849310000000000
  5.4980900000000004 10.0831999999999997  2.0009800000000002
  5.4693600000000000 11.3431999999999995  8.1009700000000002
  7.0307000000000004  8.1033899999999992  9.0265699999999995
 13.3577999999999992 10.2931000000000008  5.2676600000000002
 10.2479999999999993  8.4970099999999995  4.1868600000000002
 11.7577999999999996 14.0298999999999996  5.5343499999999999
  9.4695400000000003  2.9243600000000001  5.3265200000000004
 11.5942000000000007 11.6648999999999994  5.6029900000000001
 11.4123999999999999  4.9585600000000003  4.2382499999999999
  5.9420000000000002  8.0905000000000005  5.1918100000000003
  1.4938400000000001 10.6468000000000007  2.2410600000000001
 11.1333000000000002  3.2720500000000001  7.0635399999999997
  3.1771799999999999 13.2865000000000002  5.4516700000000000
  7.6874599999999997 10.8717000000000006  4.6990699999999999
  1.4003000000000001 12.1945999999999994  0.5233350000000000
  7.5973400000000000 10.9341000000000008  6.9609399999999999
 11.8910000000000000  9.5232399999999995  1.0616900000000000
  8.8434899999999992  8.0849200000000003  2.3401999999999998
  9.2542799999999996  5.7227699999999997  2.4499100000000000
  4.2369899999999996 12.6807999999999996  3.4416099999999998
  2.9262600000000001  8.7664000000000009  8.8214100000000002
  3.7535500000000002  9.2659599999999998  5.4996299999999998
  2.4836399999999998  7.6736399999999998  6.7850599999999996
 13.0728000000000009  6.5887000000000002  6.0242699999999996
 11.1757000000000009  6.8615100000000000  7.5402100000000001
 12.9976000000000003  7.7908499999999998  2.0840999999999998
 10.3000000000000007  2.4513500000000001  0.7919500000000000
 12.9446999999999992 10.9472000000000005  9.1538599999999999
  3.5799200000000000 10.4116000000000000  3.4021800000000000
  9.0786400000000000  5.3560600000000003  4.7233299999999998
 12.5813000000000006  8.3658400000000004  4.3030600000000003
  8.4367999999999999  0.9302300000000000  5.9296100000000003
 10.6754999999999995 11.4067000000000007  2.0891500000000001
 13.9559999999999995  0.3425610000000000  6.3728100000000003
 11.2682000000000002  1.3212500000000000  8.4872700000000005
  0.2806860000000000  7.6760799999999998  7.1888899999999998
 14.4136000000000006 11.6904000000000003  3.6893799999999999
  9.8830299999999998 10.7416999999999998  4.3860599999999996
  5.2923499999999999 13.1365999999999996  9.6120300000000007
  1.8687600000000000 10.7627000000000006  8.3769200000000001
  6.6629399999999999 12.1234000000000002  1.5535800000000000
  3.2459699999999998 13.3445000000000000  1.3671800000000001
  0.7560490000000000 13.2947000000000006  5.3621800000000004
 12.6967999999999996 12.7032000000000007  2.2679900000000002
  9.3051999999999992 12.3940000000000001  8.1308199999999999
