 H Si 
 1.0000000000000000
    14.5871822212489128    0.0000000000000000    0.0000000000000000
     0.0000000000000000   14.5871822212489128    0.0000000000000000
     0.0000000000000000    0.0000000000000000   25.7534020000000048
 H   Si 
  26  59
Cartesian
 14.4801000000000002  9.5591100000000004 14.8448919999999998
 14.5297999999999998  6.2551100000000002 13.3662419999999997
  0.6678330000000000  1.5605500000000001 14.6805920000000008
  4.3948400000000003 13.5615000000000006 11.6204319999999992
 11.6845999999999997  4.9739800000000001 12.6315120000000007
 13.1089000000000002  2.0341100000000001 13.5776920000000008
 14.3684999999999992 12.3516999999999992 14.9138520000000003
  9.9065600000000007 10.1788000000000007 12.7975619999999992
 13.1629000000000005  7.7641900000000001 14.7298819999999999
  1.0105999999999999  7.6691500000000001 14.8640019999999993
  0.6760260000000000  5.0099099999999996 14.5641820000000006
 12.0094999999999992 12.7913999999999994 15.7534019999999995
  0.9524120000000000  7.5833899999999996 15.5954219999999992
  0.4928520000000000 14.2202999999999999 12.9063320000000008
 11.4022000000000006  3.9133700000000000 13.4660919999999997
 11.0618999999999996  6.1758400000000000 14.3849420000000006
 13.5393000000000008  4.5715599999999998 12.5529419999999998
 12.5188000000000006  4.1121400000000001 15.2101419999999994
  0.4488590000000000  0.8265350000000000 14.8743119999999998
 11.5904000000000007  7.5166899999999996 15.7004420000000007
 11.4502000000000006  5.7677800000000001 14.9100020000000004
  1.0429600000000001 14.1204999999999998 15.6349920000000004
 12.7967999999999993  3.9921500000000001 14.5065419999999996
 13.1854999999999993 14.4657000000000000 14.5239220000000007
  1.2006500000000000  7.1975300000000004 10.6482820000000000
 14.3780000000000001 14.2635000000000005 12.6767319999999994
  8.5040499999999994 12.6469000000000005 14.3775420000000000
  9.1226699999999994  0.3673200000000000 12.0308620000000008
  5.9324100000000000  9.2084100000000007 11.8300219999999996
  7.0212700000000003 12.7870000000000008 10.4220799999999993
 11.8554999999999993  2.4954800000000001 10.8320480000000003
  6.1714900000000004  3.8997299999999999 13.7740419999999997
 12.0946999999999996  0.2636230000000000 10.6863309999999991
  2.0137000000000000 11.4902999999999995 14.6222019999999997
  6.6044799999999997 11.6458999999999993 14.9964820000000003
  3.3735700000000000  1.0627700000000000 14.4520619999999997
  8.3165200000000006  8.1705500000000004 14.6258719999999993
  2.5814300000000001 13.6496999999999993 15.2866520000000001
 13.8481000000000005  9.1493300000000009 10.1931539999999998
  5.2732400000000004  5.9184999999999999 13.8276520000000005
  0.4384590000000000  8.8565600000000000 12.2730320000000006
  1.7476700000000001  4.2716799999999999 13.9970420000000004
  0.3153730000000000 11.0832999999999995 13.1687619999999992
 13.3698999999999995 13.3835999999999995 15.5716219999999996
  8.5159199999999995  6.0884400000000003 11.9995019999999997
 11.5396999999999998 10.3139000000000003 14.7919820000000009
 13.3125000000000000  2.9432000000000000 12.4088820000000002
  8.5553500000000007  6.0864799999999999 15.5112819999999996
  5.6451200000000004  0.7865190000000000 14.9699519999999993
  6.8520399999999997  7.4414999999999996 12.9816520000000004
  8.6317500000000003  0.4159840000000000 14.7208520000000007
  6.9219799999999996  0.4686580000000000 13.0578020000000006
  1.0214099999999999  2.9941000000000000 12.1882520000000003
  3.9988000000000001  8.7826599999999999 10.6071080000000002
 12.0838000000000001  6.1903400000000000 12.0884219999999996
  4.8068499999999998  8.8815700000000000 15.5703420000000001
  1.3278700000000001 11.9589999999999996 11.1735019999999992
 10.1227999999999998  8.9305599999999998 13.6037920000000003
  3.4061499999999998 10.9344999999999999 10.0589560000000002
  1.6987000000000001  4.1029099999999996 10.3014650000000003
  8.3839900000000007  4.6136400000000002 13.7684619999999995
 13.6157000000000004  7.3627000000000002 13.2511119999999991
  8.6259999999999994 11.0584000000000007 10.5144169999999999
 12.5599000000000007 11.5912000000000006 13.0615919999999992
 10.2733000000000008  7.5690400000000002 11.7460719999999998
  5.8941100000000004 13.1638000000000002 12.2427320000000002
  7.7046099999999997  3.1676400000000000 10.2949760000000001
  7.7712899999999996  5.4618599999999997 10.0806600000000000
  2.6075300000000001  1.3827300000000000 12.3563320000000001
  6.3028899999999997  2.4144000000000001 12.0363220000000002
  2.6329099999999999  8.1235300000000006 12.4668419999999998
 11.5935000000000006 13.6388999999999996 12.5773519999999994
 10.1156000000000006  3.1335500000000001 13.5262519999999995
  2.6228899999999999  2.8546299999999998 15.6646420000000006
 10.7935999999999996  0.9482320000000000 13.8658420000000007
  3.5418699999999999  9.8236899999999991 13.7998419999999999
  9.3132599999999996 12.6066000000000003 12.1196520000000003
  2.6166600000000000 13.9175000000000004 11.3082419999999999
 13.1242999999999999  5.7796500000000002 10.0000000000000000
 12.4008000000000003 11.0129999999999999 10.6695360000000008
  3.2551199999999998  5.8251299999999997 12.7651120000000002
  3.8457800000000000  4.8406399999999996 10.7225300000000008
  5.3789199999999999 10.9627999999999997 13.1136619999999997
  9.6360499999999991  2.6175199999999998 11.3397419999999993
  4.3189299999999999  2.3059300000000000 11.0131320000000006
