 H Si 
 1.0000000000000000
    14.5906239619226561    0.0000000000000000    0.0000000000000000
     0.0000000000000000   14.5906239619226561    0.0000000000000000
     0.0000000000000000    0.0000000000000000   27.8950534999999995
 H   Si 
  59  75
Cartesian
 10.5601220900000001  9.9810653400000007 11.5781195599999993
  6.5014526400000001  7.1066879399999996 13.0867186400000008
 13.3591622399999999 10.1789661099999993 17.5139094899999996
 -2.2695994300000000  8.8414809699999992 11.4093696599999994
  7.2015131900000000  4.9125151499999999 12.4644143799999991
  1.4431985599999999  8.1136830799999995 10.1535233799999993
  8.0027537599999992  7.1407448899999997 14.4405172700000008
 12.2411954900000008  9.6301687099999995 15.4516779599999996
  0.1733663000000000  9.3016756899999997 11.8595596099999998
  8.0060522200000008  7.9007433799999998 14.5009173800000006
  1.3933038000000000  5.6950763200000001 11.1893414100000008
 -1.3185741200000001  7.8530774100000000 13.5506718199999998
 14.9221537200000007  1.8619826300000000 13.0424563300000003
 13.6259215499999993  2.4919931700000002 11.0088648399999993
  3.7001132299999999  6.5449117100000000 10.0570900499999993
  8.8512562999999993 11.1736718300000000 16.1511840500000012
 12.1741644099999995  4.2935059400000002 13.5809105700000003
  1.7376823400000001  8.6898520399999999 10.5309215100000007
 10.3795957100000003  4.1317115900000001 14.3748483799999995
 11.7492112199999994 10.1545874400000002  9.9314004300000001
 14.1170552800000006  5.5923486599999999 13.7150690399999995
  5.1257836399999999  8.0472194600000009 11.2417326400000004
 11.4471019300000005  6.3964191699999997 12.3248967799999996
 11.7224038499999992 10.8264531300000009  9.6240938299999996
 14.1788030599999999 11.4221175699999993  9.6321606600000003
 13.2316867699999996  9.9298465799999995 13.1579740199999993
 10.4995033499999995  8.2288424800000008 13.5974955899999994
 13.6551466799999996 13.5621154799999992 18.7338046399999989
  0.8921598600000000  8.7581424299999995 14.0272349100000007
  6.5988696100000004  7.5582265499999997 12.5005691500000005
 13.3852441800000008  6.4936874400000004 15.4216805800000003
 11.4845335199999994  2.9320371399999998 11.8867691700000009
  1.1755645200000000  6.4085748300000001 11.1219922899999997
 12.1552042900000004 -0.3704762900000000  9.5327509599999996
 11.8626725400000002 12.2917319599999999 15.6758017600000006
 10.6419031700000009  7.8578564399999999  9.7573181200000008
  2.0919128300000001  3.4296627499999999 14.1187299900000003
  9.1513875500000008  7.0896959500000003 11.9045563500000000
  3.6488448299999998  5.9846190999999997 10.5445387000000004
  1.0889698000000001  6.7684004900000003 14.3187311699999995
  6.2442515199999997  4.4696409099999999 10.2792527099999997
 11.0512519800000000  8.3930589100000006 10.0769590800000000
  9.5766942700000008  9.0396685300000001 15.5048337099999998
 12.5538859200000008 15.8326046100000006 12.4639901200000001
 13.0599953600000003  5.0222806100000001 10.8684400199999995
 11.3903799400000008 10.8450079699999993 13.6690570000000005
 10.7995433399999996  3.1806671299999998 11.6499068500000007
 13.9524253799999993  7.3344074900000003 11.5697098199999999
 14.2346281200000000 -0.1870645800000000 13.5106575099999997
  4.1469075599999998  6.5342737199999998 12.6256822500000006
  3.3027180999999999  9.7112808400000006  8.4360327099999992
  8.4616356199999991  9.2085804200000005  8.8000017400000008
  6.9779345900000003  7.5246775799999996  7.9368040200000003
 12.5875759600000006 15.1616417400000003 12.0436037900000006
 14.0140323000000002 12.3572756600000009 14.4929647500000005
 10.3012116799999998  9.5962667400000008 19.7482750299999985
  4.4296867799999999  8.1195092500000001 14.0064477099999998
 11.9764695000000003  0.8453844300000000 14.8856923299999995
 12.5496076300000006  5.5542792399999996 10.7593849099999996
  5.7955818399999997  5.8702621900000000 15.3885846900000001
 12.8631361999999996 14.4067094699999991 17.8025348600000015
  9.5527967700000005  5.3340445100000000 14.6691459700000006
  7.2252322400000004  0.5524737100000000 18.3926294100000014
 11.8690700200000006  5.8394632199999998 17.9637056500000014
 14.0612820400000000  3.2423188299999999 15.9246893000000007
  2.1486822800000001  3.3141604400000002 11.1512037799999995
  6.0999602700000004 13.1293072599999991 15.6350801799999992
 10.3896369199999992  2.4264771399999998 16.8934331299999982
  2.2649101699999998 -0.1219789700000000 11.7415351099999992
  4.5318817200000003  5.8002659000000003 17.3927646399999993
  2.8624495699999999 10.5614457300000009 11.4978135899999998
  1.3483377200000000  4.4987494799999999 16.6114081700000007
  8.6999159200000005  6.4560222400000002 10.2534919000000002
  4.0580293899999997 10.3468797299999995  9.5523960100000007
  0.8202735000000000 11.8743678199999998 14.2832953400000005
  2.4380014399999999 12.8507678199999997 15.6807555300000008
  0.8301330300000000  6.4041682000000000 17.8556631400000008
  3.2631779800000000  3.5754048100000002 13.1923785500000008
  8.6152976799999994  7.6737863700000002 17.8644048300000016
  2.0382017900000000  1.3444034000000000  9.9175087299999998
  6.5823245999999997 10.7906522900000006 11.7601500399999992
  4.2573335800000001 12.9464545100000006 14.2328110599999995
 10.3538443999999998 10.9987486499999996 12.6276511899999999
  3.3174720400000002  3.6950446399999999 17.5081144799999997
  6.5922236900000000 -0.2678881600000000 12.0055835200000001
  7.5180155900000001  8.1301224899999998  9.1738754900000004
  6.2444885699999997  9.4586900499999995 16.2752538700000002
 12.2466987300000003 -0.9707439800000000 10.8818426499999994
 10.6178024099999995  0.5407412600000000 15.4726774599999999
  8.8791353999999991  2.7981359800000001 10.8297205000000005
  2.8480814600000000  9.5718075500000008 16.3056204899999990
  8.3250554000000001  9.8258268100000006 15.3727940899999993
  7.6152822499999999 13.1250826499999995 13.8160573400000004
  4.3815645800000000  0.0550978800000000 12.7052391999999994
  7.5085195599999999  4.6503712600000000 11.0255616399999994
 14.5843133399999996  3.0754281099999998 11.9774183700000005
  4.6287646599999999  1.9429127100000001 14.0643685200000004
  7.4226438000000003 12.8091457799999997 18.1322662200000018
 10.1365542800000004 13.1151403599999998 11.7595058899999998
  1.3717434500000001 12.2529485000000005 11.9844289300000000
  9.9371397899999998  9.5732404599999992 18.3162507800000007
  6.9197649500000002  2.2328111800000001 14.4156232899999992
  7.7893029800000004 12.6932737000000007 10.8860847100000004
  9.8152006600000004  5.9114917699999996 16.9747475899999998
 13.4986358000000006  8.6431732199999995 12.2861367300000008
  0.8286640400000000  9.7268427600000003 15.1466698500000003
  5.7991350700000002  9.0719222100000003 10.4054674299999999
  4.5468719100000001  9.4240285000000004 14.6961953899999997
 10.2487654300000006  6.8842924200000004 13.0299586999999999
 11.2039946300000004 13.1776330300000009 16.6789089699999984
  5.2672341300000003  0.2027013600000000 17.1803889500000011
  8.0402094300000009  1.4848220700000001 12.5121250600000007
  4.5770445200000003 11.0163682900000008 13.0117214800000003
  9.4574339700000003 -0.0622685900000000 13.5121100999999992
  2.8021123999999999  7.3781524899999997 17.0618862299999989
  1.8435991500000000  0.4889250800000000 15.7865922699999999
  9.4648078099999999 11.7848489099999991 17.5951086100000005
 13.4161858800000005  9.3341032599999991 16.3093396199999994
  8.6127792999999997  3.8956013399999998 17.2793218199999998
  4.0052462400000000  5.6855822700000003 13.8358838899999999
  3.3262030400000002 11.5480238300000000 17.4338743700000016
  3.7890891299999998  1.7730243900000000 16.2465505800000010
  7.5062875399999998  4.3146434700000000 15.2427002599999994
 13.4614099599999992  7.0583764799999997 16.8046290099999993
  2.1451251500000001  6.1845545900000003 15.1675362000000007
  8.1998885999999995 10.8863981100000000 13.3657211700000005
 14.2914686799999995  0.9704971500000000 16.3926376100000013
 13.8835750999999998 11.9853991600000001 10.9770199200000000
  5.7008140500000000 11.4979582499999999 17.2742901000000018
 13.6305217100000000  4.2010362299999997 13.7785959499999997
 12.2527124900000004  3.7000893800000001 17.2728563299999998
  6.3781684099999998  7.3585079200000001 17.2596319800000018
  0.9614515300000001  0.4944923300000000 13.5964483400000002
  7.5137575900000000  0.5456384600000000 16.0438895899999991
