 H Si 
 1.0000000000000000
    14.5214782166834073    0.0000000000000000    0.0000000000000000
     0.0000000000000000   14.5214782166834073    0.0000000000000000
     0.0000000000000000    0.0000000000000000   28.6419880499999984
 H   Si 
   1  90
Cartesian
  3.2190043699999999  9.1516287700000003 18.6119805499999984
  9.8753370199999999  0.5189845500000000 15.7852984799999998
  0.7638714599999999  9.7875106200000008 11.0536715099999991
  6.1655868199999997 10.8286911299999993 11.4603329800000004
  4.3709500999999999 11.9150804299999997 15.8733181499999993
  2.5713162399999998  5.0859017299999998 17.6142644500000003
 13.0399037000000000 11.4223684599999995 15.2574216000000007
 12.6873920699999996  3.7237558599999998 12.6379679599999992
 10.1782547799999996  5.8570891100000004 10.7972374099999993
  8.4179216700000001  1.1778809100000001 11.4318580099999991
  2.3681686800000001 10.7153826799999994 15.9683763100000000
 13.2876794199999999 12.8695437500000001 11.5588549100000009
  3.9408239900000002  4.6948445599999999 15.7610268199999997
  3.1517692799999999  3.9225535699999998 10.0072682000000004
  5.9540979900000002 10.1950794699999996 15.5613692399999994
  2.1453015899999999  0.2742242900000000 10.6357844000000004
 10.0223678700000001  2.7569437500000000 15.1134169899999993
 11.8698693800000008  4.1255185200000000 14.7463656099999998
  5.6253518299999996  6.1102401700000000 16.5037800099999998
 13.7738318399999997  1.7129292000000000 12.5053821000000003
  4.7872180699999998  4.8799607600000003 18.4028449300000005
  5.5757779000000003  2.1337073300000000 13.0457143599999998
  1.0638191800000001 13.2700352299999995 12.0835038200000007
  7.4747406700000001  5.3622266600000001 15.2699668000000006
  0.9965278800000000  4.2878555399999998 10.6268902099999991
 14.8709737299999993 13.7495439499999996 17.7263009199999999
  1.4522344000000000  2.2208633600000001 11.6734787799999999
  2.4457483600000001  9.9313778599999996 13.7989152100000005
 13.1231666899999997  0.4540932900000000 16.8271142900000008
  1.5674258000000001  1.1482736600000001 17.7834732100000004
 14.2174247000000005  2.4076164300000000 17.4284981899999991
 11.9256917100000006  5.5827247900000003 17.8238911199999990
 11.1857243900000007 11.6136122000000004 16.6943544300000006
 12.3611190299999993 13.0894242900000002 13.6831249400000008
  1.3110676699999999  6.9962075300000004 17.4856014799999997
  9.5585447499999994 10.0724666700000007 17.5545997400000005
  4.1648689900000004  8.3462484999999997 13.7221409300000001
  0.1542825300000000  6.2521738100000004 15.6305617899999998
  7.0317966900000002 13.1791904100000004 17.5444574700000011
 10.5172773999999993 16.0911049999999989 10.4138156700000000
  8.6680717200000004  3.9426041700000001 16.6336944200000012
  8.9739952699999996  2.8948919499999999 12.9727200299999996
  9.6493418700000007  5.5738768600000004 18.0632532200000000
  9.5757659799999999 11.4822637699999994 14.9812574400000003
  9.6716570599999994 10.1874947000000002 12.9662898999999996
  3.0337903599999998  0.4705514900000000 14.7307138200000001
  8.2220807699999998  8.3610188500000007 13.1864155800000002
  2.8162526699999999  8.7714696700000001 17.2357335800000016
  6.9850251600000002  4.0584784300000001 13.3351537800000006
  4.5652535700000003 13.3369235199999991 14.0156619300000003
  4.7618731299999997 13.3948739900000007 17.6082521000000014
  1.0685731300000001  6.2356588500000001 13.4297393500000002
 10.0858063100000006 13.5513323000000003 14.0431314900000004
  4.2370873600000003  5.2342439699999996 11.6122043999999995
  4.4725942800000000 12.3702954900000002 11.8337586899999998
 11.8163654800000000  9.3686868899999993 12.2180993200000003
  3.0280056300000000  7.1043310499999999 12.1493869700000001
  0.6335055900000000  8.6623508099999995 13.1276194499999992
 12.1020351200000000  7.8606555399999998 17.6137236600000016
  6.1553926900000002  9.4732482400000002 13.3169185199999998
 10.6348889399999997  3.6772867599999999 11.4980973800000008
  3.7228230400000002  0.9114463800000000 16.9470961200000012
 11.8575461000000004  6.9664427299999998 11.9611752100000004
  3.1684069899999998  2.3415743800000000 13.3367436700000006
 13.1527291000000002  9.3734328399999995 14.1388093799999996
 11.1148315899999997 -0.5596906699999999 17.4061520300000012
  4.7456226399999997  8.1962165400000000 16.0222430899999999
  6.5382464699999998  5.2305799300000002 11.4148016800000001
  4.9181408700000002  2.9396527600000000 17.0034534599999994
  6.5015766800000003  0.1258367100000000 14.0492589199999998
  7.0938488900000003  2.3802976500000002 17.1645096899999992
  4.4113463399999997 14.4896103099999998 10.8920265399999998
  8.1985594000000006  6.7840841899999997 11.4557801399999999
  9.7859891900000004  7.7774329800000004 17.0864066100000009
  3.0421871000000000  4.6801034200000000 13.6278353899999995
 12.7233064200000001  7.5102274400000004 15.4386904900000008
  8.2419543999999991 13.7712913700000001 12.6568508699999995
  8.2426709000000002 11.6504848600000006 11.7976133900000004
  6.0876244799999997  1.6563371300000000 10.8103354899999999
 13.1460000499999996 10.6863769000000008 10.7845845400000009
  9.0656469400000006  7.0520987599999998 14.9190795499999993
 12.5202704699999998  0.4773615200000000 10.9412978499999998
 13.9225744200000001  5.5546293100000002 11.9178691699999995
  7.5753564100000004  0.3916524200000000 16.1573443599999997
  7.8097700899999998 11.2222815800000006 16.4927280699999983
 11.1788059900000007  6.3151350099999997 14.1609322700000000
  2.3415018399999998 11.3386871300000003 11.9393853700000001
 13.5567598000000000  0.4091809800000000 14.4661495700000007
  0.6125509200000000 12.2034461600000004 16.0161223700000015
  1.0597482499999999 13.8344573900000007 14.3837417999999992
 13.4545110900000005  4.3879382400000004 16.4495104099999985
