 H Si 
 1.0000000000000000
    14.5422910266661845    0.0000000000000000    0.0000000000000000
     0.0000000000000000   14.5422910266661845    0.0000000000000000
     0.0000000000000000    0.0000000000000000   28.9704010999999966
 H   Si 
  13  90
Cartesian
 12.5263000000000009  4.0728299999999997 17.5630610999999988
 13.0564000000000000  6.4516700000000000 17.6257811000000011
 10.8736999999999995  7.1875999999999998 17.8982710999999988
  1.2391799999999999  7.1355899999999997 15.7825111000000007
  0.8006200000000000  5.1481599999999998 17.1236111000000015
  7.3284099999999999  9.1030200000000008 13.7505910999999994
  4.3544000000000000  1.5208900000000001 14.2755610999999991
  1.2489500000000000  7.1075600000000003 16.5627710999999991
  1.8667600000000000 11.8506000000000000 18.0601111000000003
  5.8000800000000003  9.8266399999999994 11.9465710999999999
  2.4870299999999999 11.1132000000000009 15.7644511000000005
  2.4323000000000001  0.4989490000000000 13.3139111000000003
  0.2091580000000000  6.1448900000000002 18.7863210999999986
  3.4744500000000000 13.2523999999999997 12.2056611000000004
  4.3122999999999996 13.1210000000000004 14.3807010999999996
  6.7307499999999996  7.3792700000000000 13.6547511000000004
 12.9036000000000008  1.3473599999999999 16.0921510999999988
  2.5556700000000001 14.5062999999999995 10.2138851000000006
  4.4291999999999998  4.4638600000000004 13.5420011000000002
  1.8169999999999999 11.5775000000000006 12.1791710999999996
  5.8465400000000001  3.0775000000000001 16.9264910999999998
  7.4267399999999997 13.3521000000000001 16.4405910999999989
 10.2550000000000008 13.9699000000000009 13.1420911000000000
  5.5696700000000003  1.8424900000000000 11.0568010999999995
  3.6865600000000001  9.0863899999999997 14.1636810999999998
  2.1270699999999998  1.9051800000000001 16.1660810999999995
  9.1723900000000000  2.5409999999999999 11.9278510999999998
  0.1633790000000000  2.4442499999999998 17.4028410999999998
  9.1456800000000005  0.5185820000000000 16.9161411000000008
  5.1916300000000000 10.3984000000000005 17.2983910999999999
  7.1628200000000000  8.9011899999999997 17.1091911000000003
 11.8879000000000001  3.0409099999999998 14.7499810999999994
 12.4038000000000004 12.5716999999999999 16.2801310999999984
  6.2386999999999997  1.5459499999999999 18.6339711000000001
  8.8017199999999995  2.3014100000000002 15.5944810999999994
 14.0863999999999994  8.6888199999999998 13.1931711000000007
  7.9678199999999997 13.9555000000000007 12.7109810999999997
  3.6619400000000000  8.5991000000000000 17.9771211000000015
  4.0373500000000000  5.3232499999999998 11.4359611000000001
 12.2055000000000007  5.5293099999999997 12.4612011000000003
  1.0718600000000000  4.9807499999999996 13.9456310999999999
 12.7836999999999996 10.9972999999999992 17.8672611000000003
 10.8368000000000002 12.1755999999999993 14.6494210999999996
  7.0320700000000000  4.9260999999999999 16.0930710999999995
 10.6702999999999992  8.7761300000000002 14.7188511000000002
 10.1393000000000004  1.6755500000000001 13.8736210999999994
 12.2848000000000006  9.5333199999999998 10.0000000000000000
  9.0784599999999998  4.2631100000000002 16.8374510999999991
  6.3590700000000000  7.0569800000000003 15.8707910999999999
  3.2586599999999999 14.1669999999999998 16.4830411000000012
  9.6571999999999996  3.4469200000000000 18.8357510999999995
 14.2331000000000003  0.4437280000000000 14.4375210999999997
  3.6045500000000001  3.6408800000000001 16.8303910999999999
  8.6137200000000007  6.6550500000000001 12.4764111000000000
  6.0189399999999997  4.0794499999999996 10.6750890999999992
  1.3439800000000000  8.9020700000000001 18.4105510999999993
  5.2392700000000003  8.6074800000000007 12.5014111000000003
  1.5657200000000000  1.4901100000000000 13.9880911000000001
 12.8819999999999997 10.3720999999999997 12.1658410999999997
 14.3147000000000002 12.0577000000000005 11.4246110999999999
  8.6341199999999994  1.3255399999999999 18.9704011000000001
  5.1985200000000003 12.1691000000000003 10.8079280999999998
 12.8797999999999995  3.2893800000000000 12.7126411000000008
  0.3979090000000000  5.9618799999999998 10.3984880999999998
  8.7622599999999995 11.6745999999999999 15.5123710999999993
  0.0770769000000000 13.0275999999999996 15.6864811000000000
  1.4998499999999999 13.2074999999999996 17.5812410999999997
 12.9125999999999994  6.0860099999999999 16.1769010999999985
  6.4904599999999997 14.2399000000000004 14.4737010999999995
  2.0344799999999998  4.4705700000000004 10.7305990999999992
  4.0500400000000001  2.2367800000000000 12.9612011000000003
  8.9162700000000008  8.3158999999999992 10.7515411000000007
  7.2944000000000004 11.7569999999999997 11.9005110999999992
  0.0110775000000000  4.4434600000000000 16.0559911000000000
  1.0690400000000000 10.9044000000000008 15.4187510999999997
  6.6627599999999996  4.0845200000000004 13.9628210999999993
  5.3164499999999997 13.9177000000000000 17.8620711000000014
 10.5937999999999999 10.2528000000000006 18.3027210999999994
  6.6284099999999997  1.9994700000000001 15.0829410999999993
  0.6095970000000001  1.0978699999999999 10.8230511000000007
  7.7102199999999996  0.9366850000000000 10.9910210999999993
 11.3793000000000006 14.4138000000000002 17.1413811000000003
  9.2932000000000006  9.6993299999999998 16.4894511000000001
 11.3678000000000008  2.1221000000000001 11.1623111000000002
  9.0733300000000003 10.4597999999999995 11.3873110999999998
  4.1042699999999996  7.4568800000000000 15.9054511000000005
 13.8132999999999999 14.2165999999999997 12.1653210999999999
 14.2928999999999995  9.4367300000000007 16.7164710999999997
  1.5665300000000000  9.6751600000000000 13.5333611000000005
 12.9505999999999997  8.2662300000000002 15.2880911000000008
  5.0501800000000001 11.0745000000000005 15.0861310999999993
  7.8629400000000000  4.5807500000000001 11.9388711000000001
 10.5439000000000007  6.5007999999999999 13.9121410999999995
  3.1996400000000000 10.8169000000000004 10.3666221000000007
 11.3969000000000005  5.6867700000000001 10.2511001000000004
 14.3241999999999994  6.5257800000000001 12.4962511000000003
 10.9105000000000008  5.0637999999999996 15.6660111000000004
  3.2544200000000001  5.2828799999999996 15.1690910999999993
  0.9228760000000000  3.1310300000000000 12.2434711000000007
  4.6311000000000000  7.5050600000000003 10.5765831000000006
  7.1453800000000003 10.7843999999999998 14.0334511000000006
 11.6460000000000008 14.4094999999999995 11.3856411000000008
 10.8163999999999998 10.4746000000000006 13.1066310999999995
