 H Si 
 1.0000000000000000
    14.5411363218109368    0.0000000000000000    0.0000000000000000
     0.0000000000000000   14.5411363218109368    0.0000000000000000
     0.0000000000000000    0.0000000000000000   25.7304940000000002
 H   Si 
   7  62
Cartesian
  3.2622335300000000 13.5038984200000005 11.1232148199999994
 12.0184481600000002  9.4244546400000004 12.2263731999999994
  4.3744619900000004  2.9072383600000000 10.4032057699999996
  3.1542479100000000 12.9451257999999996 13.7558104300000004
  8.4308460499999995  3.2842810000000000 14.8151617899999994
  9.4932948699999997  9.9815313900000007 12.7470048400000007
 12.4206714799999993  0.9985028100000000  9.2106679099999997
  0.3396002200000000 10.4359897200000002 12.2087316500000007
 11.8754315699999999  7.2798558699999996 16.2977402799999993
 11.1059207099999995  4.3234399100000003 14.4311490899999999
  7.8119958799999996  8.0900148800000000 14.5602060800000004
 10.0265233100000000 13.2280467900000005 13.1178678000000009
  0.1239014800000000  1.2241853300000001 14.6676003700000006
 12.9174113300000002 11.1285213800000005 15.0239254199999994
 13.0166052400000005  5.6540071300000001 14.9367180200000007
  7.8758334600000000  8.4602319500000007 10.8660122900000005
  9.4876495799999994 10.2103608799999996 11.0114552499999991
  7.8326227399999997  6.2473188300000002 15.9879417600000000
 11.3648645800000008  2.2538400400000000 11.8506120399999997
  3.7658448099999999 12.1458412800000009 10.7546715600000002
  8.5842186100000006 12.1269761400000000 14.6306634899999999
 -0.0658953200000000 14.0402521799999995 11.1497342300000000
  4.7844134800000004  6.2672048399999998 11.0452620800000005
  1.8444250600000001  1.9608910399999999 13.2751078299999996
 12.1300912299999997  7.5960198099999996  9.9854213400000003
  7.5887789600000000  1.4348691899999999 12.7482067099999998
  9.1465521100000000 12.4884237599999999 11.0649457699999996
  9.8591399600000003  1.0277298300000000 13.1476996800000006
 14.1436562600000002  6.8610428299999997 10.9640111699999991
  0.5917276800000000  4.8173303100000000 11.1238272699999996
 10.6200288500000006  4.4442995500000002 12.1252297999999996
  8.3010273699999999  4.9512701000000003 12.0832294999999998
 12.4956321199999998  7.5609045699999999 13.6273196999999993
  1.7674076599999999  4.3540697200000000 13.0768145300000000
  0.7836172100000000  5.4537368300000004 14.8776086000000003
  7.1095973099999998  6.2207427800000001 10.4609522199999994
  4.1479128699999999  1.5870212500000000 11.0494245299999996
 11.5545459600000004  9.2372973199999997 15.0110508599999992
  5.8601917500000003  0.0719136900000000 13.6046956399999992
  9.9229620300000008  2.4061907499999999 15.1044104299999997
  1.7706467500000000  1.1568717600000000 11.0286781699999992
 10.0394613699999997  6.0627753599999998 15.5393690699999993
  4.2048076800000000  1.7695168600000000 13.4489939300000003
  1.5750396900000001  7.6141919700000003 14.5546981399999993
  6.3385361500000004 12.3210404100000002 13.8937364199999998
  3.8828432700000000  8.4515385500000004 11.5299232400000005
  8.7759430900000002  7.1727544400000003 12.6025083200000001
  5.9881925999999996  9.4488149799999999 11.7597915999999998
  5.1241464099999998  3.7226801900000002 14.3763650300000005
  0.5489737900000000 11.6553431599999993 14.2261282900000001
 14.6279950799999998  8.1856263100000000 12.8280341799999995
  2.9152074200000002 11.4720003300000002 13.9537990399999998
 11.7822173600000006  9.7980532799999995 10.7829899699999991
  5.6224474600000001  8.8995007099999999 14.0424208099999994
  5.9037695699999997 11.7619770799999994 11.5912913700000004
 11.0678744800000004  6.7526313800000004 11.9180729200000002
 14.2522789900000006 13.7947908300000002 13.4823814599999992
 13.0290729299999999  1.3189673399999999 10.5300751100000003
  4.8722221599999997 10.8827392399999994 15.0634736900000004
 13.2070897499999997 11.7111367099999999 11.1572398600000007
  7.2937500899999996  3.5587602600000001 13.6281055400000000
  6.1920356600000002  0.4019229000000000 11.1949518599999998
  3.7455326699999998  7.4707148400000003 13.6662488300000007
 14.8268066399999991  2.7505921799999999 10.1940805599999997
  2.6145529000000001 10.4574327000000000 11.7825163199999992
 12.2742257000000006 12.4960136899999998 13.2516683400000002
  7.1368477700000001 13.0864031799999996 10.1530820899999998
  9.3345255500000004  9.9155308099999999 14.4210258299999996
  3.9997349600000001  5.2426166800000003 13.0372712699999997
