 H Si 
 1.0000000000000000
    14.5307357155388193    0.0000000000000000    0.0000000000000000
     0.0000000000000000   14.5307357155388193    0.0000000000000000
     0.0000000000000000    0.0000000000000000   25.4701939999999958
 H   Si 
   3  58
Cartesian
  3.9055200000000001  5.4063100000000004 15.4701939999999993
  9.8848900000000004 13.7195999999999998 11.9748339999999995
 13.1645000000000003  1.2460800000000001 14.6726939999999999
  5.2476000000000003  2.2574999999999998 10.9111239999999992
  0.2883750000000000  7.0870899999999999 11.8229839999999999
  4.8330900000000003  9.1072100000000002 12.4981939999999998
  8.2449499999999993 12.1646000000000001 10.0580420000000004
  1.6069400000000000 10.4097000000000008 13.9837039999999995
  1.9830399999999999  1.1811100000000001 10.6933690000000006
  1.8113300000000001  8.3113899999999994 14.9407840000000007
 11.0164000000000009  4.0695399999999999 14.6916239999999991
  0.7127900000000000 13.4786000000000001 15.1839540000000000
 11.3628999999999998  5.4458799999999998 11.1260539999999999
  0.1696960000000000  3.7067100000000002 12.6608739999999997
  8.9306999999999999  6.7136199999999997 13.0908239999999996
  3.4347699999999999  9.7690500000000000 10.6587709999999998
 11.1306999999999992  5.9287900000000002 13.2493940000000006
 10.2569999999999997  2.1767900000000000 13.3644639999999999
  4.9924299999999997  6.1599800000000000 14.8124240000000000
  8.3508499999999994  1.4505600000000001 14.4372340000000001
  5.7990399999999998 10.2786000000000008 14.4518640000000005
  7.2799300000000002  0.1285900000000000 12.8194839999999992
  0.4829080000000000  4.6806400000000004 14.7691440000000007
  8.6612899999999993 12.9488000000000003 12.3286639999999998
 11.9819999999999993  0.6210250000000000 13.8226540000000000
 10.3673000000000002  9.3726500000000001 10.7864640000000005
  1.8098000000000001  0.4468490000000000 13.7449440000000003
 10.6827000000000005  3.5810200000000001 10.0000000000000000
  6.0567500000000001  4.6202300000000003 13.2576540000000005
  4.2105600000000001  3.2156600000000002 12.7769040000000000
  8.3491599999999995  6.8804299999999996 15.4049139999999998
 13.1244999999999994 12.6130999999999993 11.2776840000000007
  2.6089199999999999  6.5605799999999999 11.6261840000000003
  0.3266350000000000  1.4246500000000000 12.2290939999999999
  6.5904800000000003  8.8020399999999999 10.8843549999999993
  7.8521400000000003  5.1717700000000004 11.6695740000000008
 12.4311000000000007 11.6224000000000007 13.1763440000000003
  3.5146099999999998  7.5192100000000002 13.5790740000000003
  3.9495200000000001  0.2438170000000000 11.3872640000000001
 12.3930000000000007  7.7012600000000004 14.2318639999999998
  4.8826299999999998 12.3995999999999995 14.9795940000000005
 14.2383000000000006 11.4436000000000000 14.8126840000000009
  2.2999999999999998  4.1902200000000001 11.9523240000000008
 13.5665999999999993  5.4406100000000004 10.4808679999999992
  0.0657159000000000  6.8817599999999999 14.2309140000000003
 12.8056999999999999  0.3619860000000000 11.6172140000000006
  2.7220900000000001 13.0958000000000006 12.5429040000000001
 12.0290999999999997  9.4168900000000004 12.6134740000000001
  7.3310700000000004  3.4492099999999999 15.0649139999999999
  1.4100200000000001 10.3821999999999992 11.5881740000000004
  3.9308900000000002  1.5142199999999999 14.3418139999999994
  7.3486799999999999  1.4834600000000000 10.8538850000000000
  1.0401499999999999 12.5663999999999998 10.9775639999999992
  8.9696200000000008 12.0320000000000000 14.4477239999999991
  8.6162799999999997  8.8787199999999995 12.2103739999999998
 14.0625999999999998  9.1270100000000003 11.2928739999999994
  8.9699799999999996  3.0981999999999998 11.4101640000000000
  2.5245600000000001 12.0492000000000008 15.4512940000000008
  8.3250100000000007  9.9174399999999991 14.3108039999999992
  5.1298500000000002 14.1875000000000000 13.4757639999999999
 11.2011000000000003 13.0229999999999997 14.5434739999999998
