 H Si 
 1.0000000000000000
    14.5549806952576493    0.0000000000000000    0.0000000000000000
     0.0000000000000000   14.5549806952576493    0.0000000000000000
     0.0000000000000000    0.0000000000000000   28.7481879999999990
 H   Si 
  18  91
Cartesian
  8.0294500000000006  8.4959600000000002 11.5983979999999995
  5.8731700000000000 10.1197999999999997 17.9907480000000000
  9.3758099999999995  7.3990999999999998 12.3449080000000002
  4.1269499999999999 10.6164000000000005 12.0201379999999993
  8.5742799999999999 12.3786000000000005 12.3379480000000008
  5.3832899999999997 11.3622999999999994 11.0410880000000002
 10.5176999999999996 10.4641000000000002 11.9269079999999992
  8.6903400000000008 11.3521999999999998 10.0676509999999997
  5.9585299999999997  9.3996700000000004 11.9460479999999993
 11.4390000000000001  9.3912399999999998 15.7477380000000000
  9.7745700000000006 10.3034999999999997 11.7571379999999994
  7.8344899999999997 12.6054999999999993 15.9306079999999994
 -0.0281622000000000  5.5848699999999996 11.6385679999999994
  6.0111299999999996 11.7840000000000007 10.8973980000000008
  6.1724399999999999 11.2949999999999999 13.1725980000000007
  1.1988399999999999  3.6774399999999998 18.6797779999999989
  8.3817599999999999 10.1304999999999996 13.2064679999999992
 11.4155999999999995  5.9764299999999997 11.5538380000000007
  3.2083300000000001  1.2234700000000001 13.7359779999999994
  5.0630899999999999  0.9964030000000000 17.7319379999999995
 11.4940999999999995 11.5427999999999997 17.3379380000000012
  0.9144170000000000  1.3812899999999999 13.1221379999999996
 13.7852999999999994  9.8243100000000005 10.2125149999999998
  3.4257300000000002  6.6508900000000004 12.7973379999999999
 10.7080000000000002  4.1076199999999998 15.1283379999999994
 12.8421000000000003  8.7293800000000008 18.1738280000000003
  4.7101899999999999  7.5609900000000003 18.7326380000000015
 13.6364999999999998 10.6212000000000000 17.2426279999999998
 12.8710000000000004  5.3807099999999997 18.0682580000000002
  1.0449900000000001 12.2772000000000006 15.0763979999999993
  2.7399900000000001 12.7838999999999992 16.4171879999999994
  3.9652900000000000 13.9732000000000003 10.3166729999999998
  8.2031500000000008  3.1632400000000001 12.2835380000000001
  6.5592100000000002  8.0622900000000008 11.6485079999999996
  3.9520700000000000  3.2416800000000001 13.2550580000000000
  0.7285190000000000  3.3257800000000000 16.2414880000000004
  6.9180700000000002 11.6706000000000003 16.7289880000000011
  9.5102899999999995  2.3203600000000000 13.9562380000000008
  2.7410600000000001 10.4131000000000000 12.3200179999999992
  7.2231899999999998  4.9956100000000001 13.4755280000000006
 11.3879999999999999 12.9025999999999996 10.4868939999999995
  5.7817400000000001  3.5390799999999998 14.7350379999999994
 12.0100999999999996  8.2929899999999996 13.0218579999999999
 12.2089999999999996 13.6747999999999994 17.3476880000000016
 12.0942000000000007  5.9929100000000002 15.9529779999999999
 12.6140000000000008 10.5150000000000006 13.7060180000000003
  7.9606000000000003  3.5025800000000000 17.9723480000000002
  7.2642400000000000 12.8378999999999994 18.7481879999999990
  4.8697600000000003  2.9124500000000002 11.1985180000000000
  9.5881100000000004  3.7399499999999999 10.5432020000000009
 11.6395999999999997  4.4520000000000000 11.4750080000000008
 10.1420999999999992  3.2343000000000002 18.5761679999999991
 14.5257000000000005  7.0556700000000001 18.3426979999999986
 10.5813000000000006  0.1250890000000000 11.5791679999999992
  2.4369600000000000  4.8895600000000004 16.2320180000000001
  1.8869000000000000 12.4194999999999993 12.8981879999999993
  1.5390100000000000  6.9379200000000001 16.7270879999999984
  5.8096300000000003  6.7638100000000003 13.3394680000000001
 12.2134999999999998  3.2531699999999999 13.4581579999999992
  1.7568299999999999 12.8726000000000003 18.6823680000000003
  0.8904890000000000  3.9543800000000000 10.1334479999999996
  9.1487900000000000  9.7805999999999997 14.4177879999999998
  7.3711700000000002  1.5262199999999999 14.9026080000000007
  9.3860799999999998  8.6895100000000003 17.7000680000000017
 10.3773000000000000  0.3489850000000000 16.5112079999999999
  9.8574699999999993  7.6744199999999996 13.7931779999999993
 14.5569000000000006 10.3981999999999992 15.0967979999999997
 11.2693999999999992  2.5284000000000000 16.7902580000000015
 11.7175999999999991  0.9343570000000000 13.3855579999999996
  2.7982700000000000  8.7597600000000000 13.9252680000000009
 14.2217000000000002 14.0213999999999999 16.0490980000000008
  3.3179099999999999  1.6936199999999999 10.1456389999999992
  7.2962199999999999  1.6376400000000000 17.1250980000000013
  3.3320900000000000  0.4626910000000000 16.1669079999999994
  6.6726299999999998 14.4413000000000000 13.3886780000000005
 10.8422000000000001 11.4917999999999996 15.0356780000000008
  0.8878620000000000  8.3010199999999994 14.9595079999999996
 13.2946000000000009  3.1350199999999999 17.6659679999999994
  3.8612400000000000 13.8453999999999997 12.5675580000000000
  1.5294200000000000  9.5088799999999996 10.6765279999999994
  5.4240399999999998 12.5517000000000003 13.7277979999999999
  2.4401500000000000  4.9222400000000004 13.8382579999999997
  4.6353299999999997  4.4535099999999996 16.6619479999999989
 10.5021000000000004 13.6829000000000001 14.6090979999999995
  4.6984300000000001 11.6867000000000001 15.8806279999999997
  8.7408099999999997  0.0889234000000000 18.3298179999999995
  2.9181300000000001  8.5281000000000002 17.6005080000000014
  7.7516999999999996  9.4580400000000004 16.1268279999999997
  0.2330910000000000 14.3534000000000006 10.1137750000000004
  1.2356900000000000  1.1931900000000000 16.7808180000000000
 13.5375999999999994  6.9696600000000002 14.3815679999999997
  2.7400899999999999  5.6538300000000001 10.6855940000000000
  8.8611400000000007 13.7296999999999993 12.8857680000000006
 14.3965999999999994 13.0952000000000002 12.0403280000000006
  4.5172299999999996  3.0522100000000001 18.4361679999999986
 12.3238000000000003  8.1780500000000007 10.7363660000000003
  8.8565199999999997  5.7458600000000004 14.9655380000000005
  5.0092699999999999  4.8382600000000000 10.0000000000000000
 11.2768999999999995  8.1238600000000005 16.5367980000000010
  6.6246400000000003  1.5405599999999999 11.7106980000000007
 13.8214000000000006 14.5043000000000006 13.6976680000000002
  0.1315890000000000  5.3595699999999997 13.0678979999999996
  6.0642800000000001  7.9864300000000004 15.3864979999999996
 12.8960000000000008 11.5556000000000001 11.6360279999999996
  5.9587700000000003  6.3863000000000003 17.1567480000000003
  4.1252599999999999  9.4931500000000000 15.7816279999999995
  1.0900799999999999  1.8310599999999999 10.8837810000000008
  7.9604999999999997  5.4972099999999999 17.1530880000000003
 14.5451999999999995  3.2401399999999998 13.9597280000000001
