 H Si 
 1.0000000000000000
    14.5676482755316030    0.0000000000000000    0.0000000000000000
     0.0000000000000000   14.5676482755316030    0.0000000000000000
     0.0000000000000000    0.0000000000000000   27.9492899999999977
 H   Si 
  36  76
Cartesian
 12.8956999999999997  7.6948200000000000 14.2476400000000005
  6.9086600000000002  9.0819799999999997 12.6354199999999999
 13.1305999999999994  8.2225800000000007 17.2237699999999982
 11.3933999999999997  6.0694499999999998 11.2333800000000004
  7.4859400000000003  6.0811700000000002 12.4636300000000002
 14.5764999999999993  7.5023799999999996 12.4348799999999997
 12.7170000000000005 10.4644999999999992 14.8019300000000005
 14.0548999999999999  9.1525300000000005 15.6041899999999991
  2.3136000000000001  8.0590299999999999 10.3719049999999999
  8.9023000000000003  6.3000800000000003 13.1463199999999993
 12.7284000000000006  7.0069100000000004 10.4422969999999999
 14.0861000000000001  6.1974799999999997 14.0883000000000003
  9.4369700000000005  4.0951199999999996 13.4486399999999993
  9.3870500000000003  5.9977499999999999 11.2320399999999996
 11.6088000000000005 11.8225999999999996 13.3784700000000001
 13.0836000000000006  6.4051299999999998 10.0000000000000000
  9.5200700000000005  6.0381999999999998 13.5744299999999996
  9.2679899999999993  8.0660200000000000 12.2106100000000009
 10.5662000000000003  5.6875099999999996 15.1746999999999996
 11.1113000000000000 11.7155000000000005 13.8710799999999992
  9.2159700000000004  8.2677600000000009 16.6148500000000006
  2.0244200000000001  6.6282600000000000 13.9148800000000001
 11.8315999999999999  9.6546199999999995 12.9823199999999996
 14.4623000000000008  4.6802000000000001 11.2471200000000007
 11.4420999999999999  8.3038500000000006 10.7844270000000009
 11.5884000000000000  4.9780499999999996 13.7721499999999999
  8.1295599999999997  7.9591300000000000 14.3559699999999992
  4.4459600000000004  1.5284700000000000 16.0612299999999983
 11.9854000000000003 10.4831000000000003 15.0384799999999998
 11.3986000000000001  7.8752599999999999 16.4145199999999996
  8.8455499999999994  8.1688399999999994 14.6324600000000000
  4.3256899999999998 -0.1234370000000000 16.4530899999999995
 12.3244000000000007  7.7641600000000004 14.8112899999999996
  7.2986500000000003  6.8384700000000000 15.2685600000000008
  7.3025399999999996  2.7262499999999998 16.2105199999999989
 13.2951999999999995  6.1068600000000002 12.3729099999999992
  4.7492599999999996  6.1307099999999997 16.3996800000000000
  0.4489360000000000 10.0223999999999993 16.1990000000000016
 13.8089999999999993 12.5550999999999995 12.4195100000000007
  2.9418899999999999  0.0315623000000000 12.9420699999999993
 12.4215000000000000  5.2909499999999996 17.9492900000000013
  5.9779900000000001  3.9201000000000001 14.1896699999999996
 12.4781999999999993 14.5030000000000001 12.8034400000000002
  2.5008300000000001 11.9283000000000001 10.2613319999999995
  2.2760199999999999  2.1001099999999999 17.9129499999999986
  0.6131520000000000  2.2609900000000001 14.0730100000000000
 10.3767999999999994  2.4397099999999998 11.1999200000000005
  5.1542500000000002 13.8510000000000009 17.5103100000000005
  1.4006000000000001  0.1131300000000000 14.6333400000000005
  1.1299699999999999  4.6517299999999997 10.3285769999999992
 10.5048999999999992  5.2024499999999998 16.5059100000000001
  4.7916800000000004 13.2521000000000004 13.7872299999999992
  6.6836000000000002  3.6586699999999999 10.6837680000000006
  6.8539899999999996 10.3041999999999998 13.4140300000000003
  6.0373700000000001 12.6615000000000002 10.3495559999999998
  5.5301400000000003  9.8785100000000003 15.2705699999999993
 10.4717000000000002  8.9082500000000007 16.9043400000000013
  9.9185800000000004 10.8609000000000009 15.9764700000000008
  6.6485700000000003  9.7625799999999998 17.4140400000000000
 11.1273999999999997  0.3227280000000000 11.0941100000000006
  1.8965900000000000  9.8100000000000005 12.9022400000000008
 14.5531000000000006  8.8927200000000006 11.9197000000000006
  5.4239899999999999 11.7006999999999994 12.2927700000000009
  3.7257400000000001 10.4472000000000005 11.5461100000000005
  0.2323450000000000  0.4437260000000000 10.4566990000000004
 13.3495000000000008 12.7538999999999998 16.4644499999999994
  8.1676599999999997 11.4792000000000005 17.2901300000000013
  9.3813300000000002  2.6507800000000001 13.2845099999999992
  8.0971200000000003  2.5155099999999999 17.3712400000000002
  0.3992940000000000  5.5485499999999996 15.1567200000000000
  1.5910800000000000  0.0699654000000000 16.9976799999999990
 13.8945000000000007  0.4234840000000000 16.7916099999999986
 10.9565999999999999 12.7927999999999997 16.3328099999999985
  8.9107299999999992 13.5168999999999997 13.3727699999999992
  1.8998999999999999  4.1521600000000003 14.0634200000000007
  8.9996200000000002 11.2794000000000008 13.6826399999999992
 12.2731999999999992  9.3619299999999992 11.5383200000000006
  4.2350399999999997  6.3921799999999998 11.5951900000000006
  2.2185700000000002  8.5747000000000000 16.8506500000000017
  7.3228000000000000 13.4837000000000007 16.6354299999999995
  2.7645700000000000  4.4718200000000001 11.7990399999999998
  3.9482300000000001 11.9324999999999992 17.8832099999999983
  1.7821800000000001 11.2361000000000004 14.6809600000000007
  9.1060700000000008 13.8399999999999999 11.1463300000000007
 14.2050999999999998  1.9536800000000001 12.1504600000000007
 10.2255000000000003  2.8697599999999999 16.9342100000000002
  3.9668700000000001  4.1820199999999996 15.2014700000000005
  2.9332400000000001  7.6952600000000002 13.3302999999999994
 12.5518000000000001 11.4488000000000003 10.6278249999999996
  7.1937100000000003  0.0327334000000000 10.3062900000000006
  0.0912042000000000 12.7520000000000007 14.4443000000000001
  9.0384300000000000 10.1326000000000001 10.1144119999999997
  4.3526999999999996  2.7615099999999999 16.8751099999999994
 13.6851000000000003  4.0721800000000004 16.3663999999999987
 12.5395000000000003  3.3654099999999998 11.1052499999999998
 13.1439000000000004  2.1053400000000000 15.3450900000000008
 10.8445000000000000 14.2542000000000009 14.3260199999999998
 10.2462999999999997 12.0767000000000007 10.0926209999999994
 10.8343000000000007  1.8260700000000001 14.9725500000000000
  6.8190099999999996 14.3025000000000002 14.4601199999999999
  1.3948900000000000 13.4003999999999994 11.6502499999999998
  5.9516299999999998  1.6340100000000000 11.6813699999999994
  7.1568699999999996  1.8960100000000000 13.6308399999999992
  8.4165500000000009  5.5827700000000000 17.5002500000000012
  3.7020800000000000  2.1206800000000001 11.7026599999999998
  3.9087299999999998 11.5745000000000005 15.4379100000000005
  3.9901100000000000  8.1402300000000007 15.3613599999999995
 12.0691000000000006  5.2953999999999999 12.3449500000000008
  9.6960700000000006  9.5487800000000007 12.1555499999999999
  6.9108099999999997  5.5346099999999998 15.7936800000000002
  1.1314800000000000  6.6402900000000002 17.1309900000000006
  6.1778000000000004  5.3025099999999998 12.3180300000000003
