Si H 
 1.0000000000000000
    20.0000000000000000    0.0000000000000000    0.0000000000000000
     0.0000000000000000   20.0000000000000000    0.0000000000000000
     0.0000000000000000    0.0000000000000000   20.0000000000000000
 Si  H  
   2   6
Cartesian
 10.0000000000000000 10.0000000000000000 11.1676830000000002
 10.0000000000000000 10.0000000000000000  8.8323169999999998
 10.0000000000000000 11.3932859999999998 11.6860199999999992
  8.7933789999999998  9.3033570000000001 11.6860199999999992
 11.2066210000000002  9.3033570000000001 11.6860199999999992
 10.0000000000000000  8.6067140000000002  8.3139800000000008
  8.7933789999999998 10.6966429999999999  8.3139800000000008
 11.2066210000000002 10.6966429999999999  8.3139800000000008
