 H Si 
 1.0000000000000000
    14.5492154080878304    0.0000000000000000    0.0000000000000000
     0.0000000000000000   14.5492154080878304    0.0000000000000000
     0.0000000000000000    0.0000000000000000    7.4040717798725755
 H   Si 
  12  59
Cartesian
 10.0073000000000008  7.7686900000000003  3.9939000000000000
  9.7623300000000004  6.0919299999999996  1.4377300000000000
 10.4595000000000002  6.0249300000000003  1.6969000000000001
  8.2214399999999994  5.1327499999999997  3.0351400000000002
  9.5407100000000007  8.5864600000000006  1.8153100000000000
  9.0417699999999996  5.6924200000000003  7.0097399999999999
  9.1460600000000003  8.3626299999999993  6.8870699999999996
 10.3402999999999992  6.1922800000000002  4.6643999999999997
  9.4832000000000001  7.6673499999999999  7.1253700000000002
 11.3135999999999992  1.7117400000000000  1.5754100000000000
 13.6311000000000000  7.5670500000000001  2.2948499999999998
 10.3930000000000007  5.4163199999999998  4.5362600000000004
  4.4618900000000004  1.7448800000000000  4.1097299999999999
  5.6381800000000002  7.5341500000000003  1.7677799999999999
  2.2170999999999998  8.5022500000000001  6.0749300000000002
 11.8215000000000003 11.4002999999999997  0.5787150000000000
 12.1814999999999998 13.1242000000000001  6.0427299999999997
  4.7546799999999996  1.4332700000000000  0.2836950000000000
  0.6632300000000000  2.1334800000000000  4.2759700000000000
  7.7837899999999998  2.8531300000000002  6.1956300000000004
  3.0078900000000002  9.6702200000000005  4.2580200000000001
  3.8074200000000000  0.3449360000000000  5.8266999999999998
  6.8335200000000000  8.0652600000000003  3.8149799999999998
  5.8817500000000003 11.0932999999999993  6.2548899999999996
  7.6848799999999997  5.1741599999999996  6.6506999999999996
 10.7027999999999999  0.3878060000000000  1.2325200000000001
  4.4740900000000003  3.8091200000000001  0.6453700000000000
  6.2710800000000004  5.2957400000000003  0.9726089999999999
 11.8125999999999998 11.7135999999999996  4.0814199999999996
  0.6748030000000000 12.2444000000000006  4.1473899999999997
  3.0355300000000001  9.5450999999999997  0.4929680000000000
  3.4792200000000002  6.6837700000000000  2.8315700000000001
  8.3851700000000005 12.1723999999999997  2.1624200000000000
  3.0482399999999998  4.6288999999999998  6.1430199999999999
  0.5628040000000000 12.3656000000000006  0.5595640000000000
  4.1140400000000001 12.6692999999999998  6.1275899999999996
 13.9298999999999999 10.4031000000000002  0.5443320000000000
  3.7547100000000002  6.6466399999999997  5.3682400000000001
  8.3141200000000008 11.7638999999999996  5.9868800000000002
 14.3762000000000008 13.6818000000000008  2.3040300000000000
  5.4391800000000003  9.6578900000000001  0.6623440000000000
  6.8717100000000002  4.6925900000000000  3.2170899999999998
  2.8797600000000001  4.5416100000000004  2.1606200000000002
  4.1861600000000001 12.6689000000000007  2.2485800000000000
  6.3257099999999999  6.2066299999999996  4.9858799999999999
 13.7514000000000003 10.3710000000000004  4.0115999999999996
  9.6526999999999994  2.0146700000000002  4.9707400000000002
  6.9828400000000004  0.8726520000000000  7.3436599999999999
  1.2734600000000000  4.5098099999999999  0.3190980000000000
  6.5080700000000000  2.5907499999999999  4.1504899999999996
  1.1321500000000000  2.0833400000000002  0.3259080000000000
  8.2345000000000006 14.1244999999999994  5.8674600000000003
  9.3971999999999998 10.9960000000000004  3.9549900000000000
 12.0968000000000000 13.1509999999999998  2.1944200000000000
 10.4989000000000008  0.2847260000000000  6.2170899999999998
  2.2516200000000000  8.5221099999999996  2.3805200000000002
  2.8133300000000001 11.9711999999999996  0.5168280000000000
  1.4503500000000000  0.6520670000000000  5.7645900000000001
  2.5846300000000002  3.4246500000000002  4.1596700000000002
  9.0025399999999998  8.6000899999999998  3.2740200000000002
  2.9656300000000000 11.9068000000000005  4.1544999999999996
  5.5987900000000002  9.9470799999999997  4.2718200000000000
 14.4808000000000003 13.4431999999999992  5.9499000000000004
 14.3361000000000001  8.9165399999999995  2.3973599999999999
  3.6675300000000002  0.4894180000000000  2.1497400000000000
  8.4675899999999995 14.5444999999999993  1.8108599999999999
 14.4817999999999998  9.3920999999999992  5.9481900000000003
  9.4701299999999993 10.9839000000000002  0.4353510000000000
  8.0223899999999997  0.8962059999999999  3.8125100000000001
  1.1657999999999999  1.0807599999999999  2.3152400000000002
  6.0500299999999996 11.3198000000000008  2.2976100000000002
