 H Si 
 1.0000000000000000
    14.5237936979055426    0.0000000000000000    0.0000000000000000
     0.0000000000000000   14.5237936979055426    0.0000000000000000
     0.0000000000000000    0.0000000000000000    8.0761592049602129
 H   Si 
   1  62
Cartesian
  6.0564999999999998 10.7690999999999999  5.5982399999999997
  1.8861000000000001 11.1399000000000008  3.7134900000000002
  3.1787700000000001  1.9397500000000001  5.7428400000000002
 13.9408999999999992 10.9358000000000004  3.7892100000000002
 13.4769000000000005  9.7949099999999998  5.7808400000000004
  4.1238599999999996  3.3397500000000000  4.0562199999999997
 14.3751999999999995  7.6233000000000004  5.9815699999999996
  6.8325699999999996  4.9135999999999997  6.8408699999999998
 10.8483000000000001 13.7809000000000008  4.0080600000000004
 10.5231999999999992  0.7171720000000000  2.1826599999999998
 13.4565999999999999  4.5009199999999998  4.4836799999999997
 10.3505000000000003  2.9374099999999999  2.9572500000000002
  2.4324599999999998  4.7638400000000001  2.9653700000000001
 13.7037999999999993  3.0071400000000001  1.6814100000000001
  1.7886299999999999  9.1767800000000008  2.5047400000000000
  9.4580099999999998  2.8068399999999998  5.2613099999999999
  0.1448780000000000  4.0849700000000002  7.8260300000000003
 14.0861000000000001  6.6727900000000000  3.9506600000000001
  1.9158100000000000  6.9452299999999996  3.6686100000000001
  5.6336300000000001  4.2698400000000003  0.8062600000000000
  9.0887600000000006  4.1586100000000004  7.1067799999999997
 13.5439000000000007  7.4564100000000000  1.8662500000000000
  2.2231500000000000  7.5533599999999996  5.9093900000000001
  0.6810380000000000  3.2491099999999999  3.5609500000000001
  2.3506200000000002  9.7820599999999995  6.9666399999999999
 11.1860999999999997  5.1399900000000001  7.4048900000000000
  0.3362480000000000  6.3518499999999998  0.1972870000000000
  8.6820100000000000  3.4882700000000000  1.3525700000000001
  5.4799600000000002 12.1750000000000007  5.4460300000000004
  2.6576800000000000  6.9853100000000001  0.1089030000000000
  2.2065000000000001  3.1755800000000001  7.6000199999999998
  0.1895490000000000 10.7301000000000002  7.5085899999999999
 12.0183000000000000  4.3881899999999998  2.5484800000000001
  8.3705300000000005  1.1374500000000001  1.2632000000000001
  3.0604399999999998  1.5282199999999999  0.9244869999999999
  1.7041100000000000  0.2135100000000000  2.4647199999999998
  5.5983499999999999 13.1125000000000007  3.2110300000000001
  6.0230100000000002 12.1927000000000003  1.1321300000000001
 14.1248000000000005 14.1273999999999997  1.9177900000000001
  3.1529099999999999 11.4549000000000003  5.6477500000000003
 12.5241000000000007  1.0970400000000000  1.0525100000000001
  7.1158799999999998  4.8272199999999996  2.3404099999999999
  3.9483500000000000  0.2824000000000000  7.1453400000000000
  3.0720999999999998 12.8961000000000006  2.6808000000000001
 11.3589000000000002  6.4626099999999997  1.3689800000000001
 12.7890999999999995  3.6467700000000001  6.5208199999999996
  7.9981999999999998  0.4381800000000000  6.9470200000000002
  1.2730999999999999  1.1856400000000000  4.4942399999999996
  0.4086920000000000 13.1212999999999997  7.6741099999999998
  3.4946600000000001  9.2546999999999997  0.9186590000000000
 10.3531999999999993  0.5914600000000000  5.9708699999999997
 14.2640999999999991  9.8603400000000008  1.6964500000000000
  6.2618799999999997  4.0902200000000004  4.6849800000000004
  6.1228800000000003 13.5206999999999997  7.1910900000000000
  4.9043999999999999  2.3116800000000000  2.0920100000000001
  6.4901499999999999  0.9174890000000000  2.8136000000000001
 14.1340000000000003  0.0021373400000000  5.7698900000000002
  3.8342800000000001 11.6219999999999999  0.7626560000000000
  3.3211400000000002  4.8539300000000001  0.6917770000000000
 13.2832000000000008 13.2760999999999996  3.8826399999999999
 12.4833999999999996  1.2419700000000000  6.8280500000000002
  2.6860400000000002 12.9695999999999998  7.3009399999999998
  7.3008800000000003  1.9837199999999999  4.8364500000000001
