Si H 
 1.0000000000000000
    20.0000000000000000    0.0000000000000000    0.0000000000000000
     0.0000000000000000   20.0000000000000000    0.0000000000000000
     0.0000000000000000    0.0000000000000000   20.0000000000000000
 Si  H  
   1   4
Cartesian
 10.0000000000000000 10.0000000000000000 10.0000000000000000
 10.8561350000000001 10.8561350000000001 10.8561350000000001
  9.1438649999999999  9.1438649999999999 10.8561350000000001
  9.1438649999999999 10.8561350000000001  9.1438649999999999
 10.8561350000000001  9.1438649999999999  9.1438649999999999
