 H Si 
 1.0000000000000000
    14.5722492106642658    0.0000000000000000    0.0000000000000000
     0.0000000000000000   14.5722492106642658    0.0000000000000000
     0.0000000000000000    0.0000000000000000   11.1871750446626805
 H   Si 
  27  93
Cartesian
  4.1898000000000000  1.3786799999999999  9.2507099999999998
  1.7179800000000001  4.5680100000000001  9.3046500000000005
  7.7160099999999998  1.6524000000000001  8.0245400000000000
  5.9055900000000001  4.2091399999999997  6.5425899999999997
  1.1526600000000000  1.6858200000000001  6.4584400000000004
  4.3841200000000002 13.4267000000000003  3.9424600000000001
  4.2820900000000002  3.3509600000000002  5.4558600000000004
  3.1656100000000000  1.4414100000000001  3.5008300000000001
  4.8282800000000003  4.6248800000000001  2.0304300000000000
  4.0483700000000002  1.6051000000000000  1.2196300000000000
  5.8305300000000004 13.9177000000000000  0.3687380000000000
  0.5902990000000000  4.7970300000000003  0.6157170000000000
  3.7140000000000000  2.9424000000000001  5.3634500000000003
  4.1210399999999998  1.0495000000000001 10.0023999999999997
  3.5913499999999998  2.1770800000000001  1.3889899999999999
  3.9307799999999999  0.8405300000000000  5.7651399999999997
  4.6111199999999997  5.5886600000000000 10.6379000000000001
  4.8011400000000002  3.0558800000000002 10.7053999999999991
  6.4530000000000003  0.1987930000000000  5.4459799999999996
  3.8008600000000001  1.5634699999999999  3.8172000000000001
  5.8092600000000001  2.0271100000000000  4.4243100000000002
  6.5078399999999998  1.6175600000000001  1.4434000000000000
  4.9127400000000003  2.9720599999999999  7.6777100000000003
  3.8626200000000002  0.6072310000000000  6.4487399999999999
  4.4384800000000002  2.4086699999999999  7.7116699999999998
  5.3631200000000003  3.3641999999999999 10.4086999999999996
  1.6196800000000000  1.2021100000000000  1.7482599999999999
  0.9578950000000001 10.8028999999999993  6.1032099999999998
  6.9371400000000003 11.7866999999999997  6.8773299999999997
  1.2021500000000001 12.3366000000000007  0.1399250000000000
  3.6704100000000000  6.8519300000000003  3.7391899999999998
  4.2729600000000003  9.1140699999999999  7.0958800000000002
 12.1844999999999999 10.2937999999999992  1.1738400000000000
 14.3583999999999996  4.8793699999999998  4.2765800000000000
 14.1065000000000005 13.8056999999999999  0.4169510000000000
  7.2211400000000001  7.9958099999999996  5.0848100000000001
  9.8342399999999994  7.0455399999999999  7.2783300000000004
  9.1294199999999996  3.2638500000000001  0.9081910000000000
  4.8534499999999996  6.9642299999999997 11.0203000000000007
  0.9443090000000000  6.8952799999999996  6.8936200000000003
 14.2902000000000005  9.1012100000000000  2.1123300000000000
  8.3055000000000003  6.0304900000000004  5.9287500000000000
 12.6649999999999991 10.3071999999999999 10.1031999999999993
 10.1638000000000002  9.4576100000000007  2.2016800000000001
  8.1327400000000001 12.6012000000000004  3.4435899999999999
 12.0424000000000007  5.6545600000000000  1.4560800000000000
  9.4889299999999999  0.3905080000000000  6.0203400000000000
  0.3194870000000000 11.0282999999999998  9.6805599999999998
  7.5502099999999999 13.6989000000000001  5.4896799999999999
  4.4754300000000002 11.5299999999999994  6.7058400000000002
  9.2926699999999993  9.2092600000000004  8.0834700000000002
 10.9131999999999998  0.4649870000000000  3.8975000000000000
  5.0007700000000002  8.5145199999999992  4.8885699999999996
 12.4955999999999996 13.2262000000000004  3.5898400000000001
 13.2604000000000006  3.0312500000000000  5.4807199999999998
  9.7117799999999992 10.7978000000000005  4.1911800000000001
 10.7982999999999993  7.1502499999999998  2.7680600000000002
 10.0435999999999996 13.5042000000000009  0.3433130000000000
  3.7969200000000001 12.1727000000000007  4.4579700000000004
  3.4371900000000002 12.8175000000000008  8.2017799999999994
  7.7823000000000002  1.8762700000000001  2.1072600000000001
 14.2042999999999999  8.2454400000000003  4.2104100000000004
  8.3983399999999993  5.4828700000000001 11.0854999999999997
 14.3048999999999999  5.0006300000000001  1.8717900000000001
  7.1211700000000002  6.6724600000000001  3.0548799999999998
 11.9436999999999998  6.1392499999999997 10.2432999999999996
  6.9969999999999999  7.2687900000000001  0.8244760000000000
 11.9556000000000004 11.4529999999999994  4.9627999999999997
 11.0184999999999995  0.2305230000000000  9.9400999999999993
  3.5334099999999999 12.2340999999999998 10.4169999999999998
  5.8081399999999999 12.5173000000000005  0.1084510000000000
  7.4806800000000004  9.5840899999999998  9.6908600000000007
 13.9169999999999998 13.9174000000000007  7.5395399999999997
  0.3601720000000000  0.6307920000000000  2.1478199999999998
  6.6160899999999998  3.1836400000000000  3.9659700000000000
 10.2439000000000000  3.3212000000000002  8.3206600000000002
 13.4015000000000004  4.5516300000000003  9.2194599999999998
  0.8098680000000000  7.2375200000000000  1.3312500000000000
 10.5618999999999996  2.4330099999999999 10.4585000000000008
 10.6654999999999998  4.0904199999999999  2.5438299999999998
  3.1516299999999999  7.5104899999999999  1.4643699999999999
 11.8803000000000001 12.4202999999999992  7.1113099999999996
  3.9077500000000001  9.9029399999999992 10.3863000000000003
  7.1759100000000000 11.7706000000000000  9.2474500000000006
  0.0394745000000000 14.0909999999999993  4.0330100000000000
  0.8206340000000000  5.6171800000000003  8.9063800000000004
 12.9906000000000006  8.1231000000000009  9.6908899999999996
  1.3469199999999999  6.5060099999999998  4.6760900000000003
  1.1337699999999999 12.4019999999999992  7.9041600000000001
  1.4573199999999999 12.1113999999999997  4.1964100000000002
  8.6665899999999993  2.2794800000000000  7.0223899999999997
 14.5065000000000008  0.9955690000000000  5.9356400000000002
 11.9016999999999999  6.4299400000000002  6.5058900000000000
 12.9930000000000003  2.6634000000000002 10.7110000000000003
 12.1739999999999995  4.1914400000000001  7.1893099999999999
  9.1534099999999992 14.4448000000000008  2.4394999999999998
  1.8064400000000000  9.3712000000000000  9.5647599999999997
  0.6011810000000000  7.4813799999999997 10.1974999999999998
 12.2111999999999998 12.7093000000000007  1.3849300000000000
 13.3396000000000008  0.3423310000000000  9.7093600000000002
  8.2595700000000001  9.9623399999999993  6.0208700000000004
  1.3741900000000000 10.7588000000000008  2.0574400000000002
  7.9807300000000003  9.3838299999999997  0.9137480000000000
 12.6004000000000005  6.5971799999999998  4.3167499999999999
  6.7942999999999998 11.2274999999999991  1.9339999999999999
  5.3842299999999996  8.5967599999999997  9.0273299999999992
 11.9529999999999994  2.4370200000000000  3.4094400000000000
 13.7136999999999993  2.5764800000000001  1.7813900000000000
  5.2849899999999996  4.9926100000000000  3.3975700000000000
 13.4846000000000004  9.7689800000000009  5.7391699999999997
  9.8824900000000007  5.8105500000000001  9.3364899999999995
 10.3422999999999998 13.8551000000000002  7.9456600000000002
  3.4476800000000001  9.7056000000000004  1.4929800000000000
  4.9078499999999998 10.3911999999999995  3.1920600000000001
  1.9487099999999999  8.9625100000000000  7.3247299999999997
  9.2295499999999997  5.6251699999999998  3.8512100000000000
  7.2562600000000002  3.9120300000000001  6.1063700000000001
 13.4478000000000009  8.1145099999999992  7.3238399999999997
 10.9588000000000001 10.7653999999999996  8.6028000000000002
  9.3597999999999999 12.5151000000000003  9.5331200000000003
