 H Si 
 1.0000000000000000
    14.5538280032082756    0.0000000000000000    0.0000000000000000
     0.0000000000000000   14.5538280032082756    0.0000000000000000
     0.0000000000000000    0.0000000000000000   29.3993205000000017
 H   Si 
  25  96
Cartesian
  0.3336860000000000  3.7597200000000002 14.1459805000000003
 11.9909999999999997  2.9044400000000001 16.3757504999999988
 12.2220999999999993  5.3894399999999996 10.7000034999999993
 11.3460999999999999  5.0875000000000004 15.6147705000000006
 11.7385000000000002  7.3698300000000003 14.7020405000000007
  9.2735699999999994  3.8458299999999999 14.6202304999999999
 13.3034999999999997  5.5896400000000002 13.7190004999999999
  4.6291799999999999  3.9320700000000000 13.1150404999999992
 13.2669999999999995  5.4947200000000000 15.6172605000000004
 13.4231999999999996  3.6511700000000000 11.6784405000000007
 11.9237000000000002  4.7161000000000000 10.5925265000000000
  2.7308200000000000  3.6949900000000002 12.0671304999999993
  9.7555899999999998  3.4192100000000001 12.3781204999999996
 13.2138000000000009  6.0382800000000003 13.1282104999999998
 11.1298999999999992  7.3927800000000001 14.1850004999999992
 11.3865999999999996  4.5146400000000000 17.4064304999999990
 10.1776000000000000  1.6083400000000001 15.2483105000000005
  8.0944800000000008  6.7649100000000004 17.0088705000000004
 11.8310999999999993  2.8172999999999999 12.7553605000000001
 11.2462999999999997  5.1883299999999997 13.1805005000000008
  8.9604099999999995  2.6208600000000000 16.6226304999999996
 10.8218999999999994  4.2701500000000001 17.8670405000000017
 11.9934999999999992  7.0130499999999998 17.7525605000000013
 11.6808999999999994  4.8028399999999998 12.7657404999999997
 10.1313999999999993  7.4659399999999998 17.8202704999999995
  1.6926900000000000 12.4204000000000008 19.0833104999999996
  8.7438099999999999  6.1218800000000000 19.3993205000000017
 14.5305999999999997  3.4517500000000001 10.5970084999999994
  0.0116078000000000  0.6608010000000000 16.5329705000000011
  0.2485700000000000 13.0768000000000004 17.5505704999999992
  2.9798600000000000  2.2804700000000002 12.9018204999999995
  9.6332100000000001  8.7761800000000001 17.2135305000000010
 12.6303999999999998  6.7858499999999999 19.1330504999999995
 12.0980000000000008  1.3935800000000000 12.9587205000000001
 12.8444000000000003  7.9251800000000001 10.0000000000000000
  0.9894920000000000  8.8717799999999993 18.3899805000000001
  4.6367000000000003 10.3194999999999997 17.3772504999999988
  1.3990700000000000  7.8080900000000000 12.4507705000000009
  8.8062699999999996  6.6296799999999996 13.9512405000000008
  4.8852799999999998  8.8789899999999999 11.9964405000000003
  6.4355300000000000  4.4152600000000000 15.9958904999999998
  0.1094760000000000 11.6992999999999991 15.7412705000000006
  3.7432500000000002 13.4707000000000008 18.7781905000000009
  8.6419499999999996  8.5338600000000007 15.2289905000000001
 13.5314999999999994 12.9719999999999995 14.1615205000000000
  6.6265999999999998 11.3262999999999998 18.1718004999999998
 11.4665999999999997 10.0763999999999996 17.0520704999999992
 10.8670000000000009 12.4802999999999997 11.4980504999999997
  5.0071300000000001  1.6903400000000000 11.8706405000000004
  1.4481500000000000  2.0906099999999999 17.9486604999999990
  8.2891100000000009  5.3211800000000000 17.0547104999999988
  1.4216100000000000  0.6730470000000000 12.6703904999999999
  3.3789500000000001  6.6583800000000002 17.3897404999999985
  3.7774800000000002  2.0996299999999999 15.0626505000000002
  5.3845700000000001  3.4681799999999998 18.7720404999999992
 10.0863999999999994 11.4202999999999992 15.8302805000000006
 11.8078000000000003  0.0973076000000000 10.8460444999999996
 13.0968000000000000  9.5521799999999999 13.2276305000000001
 14.1420999999999992  0.7849490000000000 14.1145604999999996
  2.5882800000000001  7.8146599999999999 15.2901004999999994
 14.4433000000000007  5.6054199999999996 18.3845804999999984
 10.3437000000000001  0.5339600000000000 14.2405805000000001
 13.2861999999999991  9.8574999999999999 15.5962704999999993
  2.0787300000000002  6.8551200000000003 10.4740505000000006
  6.3043399999999998  7.8803500000000000 15.4245905000000008
  7.5896400000000002 14.3659999999999997 10.2605845000000002
  5.3881500000000004 14.1980000000000004 10.7394604999999999
  2.5345100000000000  3.4584800000000002 16.3766505000000002
  8.8562999999999992  7.2788800000000000 11.8607405000000004
  2.5035500000000002  6.1224999999999996 13.6024805000000004
  4.2228800000000000 10.9237000000000002 15.0280105000000006
 14.5176999999999996 11.6178000000000008 10.1535755000000005
 13.7385000000000002  7.5393800000000004 12.2391605000000006
 12.4580000000000002  1.6921900000000001 17.2240804999999995
  4.6960100000000002  5.4438000000000004 13.0586105000000003
  9.2165999999999997 14.0484000000000009 17.8880504999999985
  8.2828300000000006 14.4083000000000006 13.4856505000000002
  8.1005099999999999 12.3651999999999997 16.6370505000000009
  7.6233800000000000 11.0884999999999998 12.7111405000000008
  5.0598799999999997  3.3660000000000001 10.3526664999999998
  6.2482300000000004  1.4951000000000001 17.3586404999999999
  1.3008500000000001  4.6473500000000003 14.8678004999999995
  6.1588300000000000  2.2907799999999998 15.2037604999999996
 11.2973999999999997 14.2617999999999991 17.2344605000000008
  9.9400200000000005  5.0365900000000003 15.2115004999999996
  0.4717090000000000  8.2659199999999995 16.2064005000000009
  1.9940599999999999  4.5448399999999998 10.6450005000000001
  7.1809700000000003  1.8702799999999999 13.1428504999999998
 10.7268000000000008  8.5018100000000008 10.9983304999999998
 -0.0040010900000000  3.5636700000000001 19.1282405000000004
  4.2417299999999996  7.3313600000000001 10.2877764999999997
  5.8347899999999999 12.1221999999999994 13.9134405000000001
 11.3506999999999998 13.1702999999999992 15.1735804999999999
  0.4717570000000000  1.1356500000000000 10.6119494999999997
 14.5474999999999994  5.9895500000000004 16.1116704999999989
  8.7020999999999997 12.9404000000000003 11.7483904999999993
  4.4829800000000004  8.7412500000000009 14.2695504999999994
  6.6214599999999999  5.9691000000000001 14.1899304999999991
  4.3835199999999999  4.6881199999999996 17.0794704999999993
  5.6701699999999997  5.5427900000000001 10.8947634999999998
  7.2242300000000004  9.1007099999999994 11.6141904999999994
  2.0482700000000000 11.4860000000000007 14.4855704999999997
  7.9580599999999997  5.5311500000000002 10.8241185000000009
  1.8354999999999999  6.8525099999999997 19.2069405000000017
  4.4682399999999998 12.6655999999999995 12.1439404999999994
  3.4124900000000000 10.6387999999999998 11.3448705000000007
 11.0495999999999999 10.2920999999999996 12.3210405000000005
 12.0387000000000004 10.8964999999999996 19.1299504999999996
  3.0310299999999999 14.5286000000000008 15.4875504999999993
  8.3644400000000001  9.8429800000000007 18.9457704999999983
  9.3609299999999998 10.1814999999999998 13.9607305000000004
  6.8213499999999998 13.6382999999999992 15.1800204999999995
  1.6344700000000001 10.0830000000000002 12.6986805000000000
  2.7452899999999998 13.4694000000000003 13.4470104999999993
  5.1771700000000003  8.0002600000000008 17.5253805000000007
  8.5016800000000003  1.7241599999999999 17.5774605000000008
  4.7841399999999998 14.2576999999999998 16.7840604999999989
 14.3307000000000002 11.3710000000000004 12.4307505000000003
  2.8189700000000002 10.3079999999999998 18.8262205000000016
 12.7096000000000000 12.9701000000000004 18.6255504999999992
  8.3901900000000005  3.3662500000000000 11.8036405000000002
