 H Si 
 1.0000000000000000
    14.5699491063216477    0.0000000000000000    0.0000000000000000
     0.0000000000000000   14.5699491063216477    0.0000000000000000
     0.0000000000000000    0.0000000000000000   28.9842785999999961
 H   Si 
  23  96
Cartesian
  3.8931930299999999  5.7147775100000002 19.1745933599999994
  5.0513725200000001  5.7582410599999996 13.1602256099999995
  2.3903838600000000  3.6245404600000000 15.5440237200000002
  5.6329536700000000  7.8366671700000001 19.0235606600000011
  2.8937050300000000  4.5542402500000003 12.0010557000000002
  3.1571663299999999  7.0869903900000004 12.1762556699999998
  1.6629801300000000  3.8528242700000002 19.2346946599999988
  5.6287875600000001  5.3803156200000002 18.2714702500000001
  0.6299644100000000  7.6256184899999999 17.1074651499999995
  7.0756726399999996 11.2961386800000003 10.0854125700000008
  4.1483959300000004  4.7269505399999998 15.0812687099999998
  5.5937420500000004  7.7343621200000001 19.7594550300000016
  1.0890131300000001  6.1445507599999996 13.6856174100000008
  3.4367388600000002  6.2771637699999996 19.3473795799999984
  2.2996426799999998  6.0113026800000000 17.1248235000000015
  0.9025597100000000  8.5736812100000002 13.7529819000000000
  2.1030685400000002  7.2863875100000000 10.0080325899999991
  3.2543934800000001  3.6034868300000000  9.4861539399999995
  3.7052947500000002  7.6447133500000000 15.4609474500000008
  2.4938705500000000  4.7100997900000001 12.6716704000000000
 -2.3275780099999999  8.7270778700000005 18.4403091100000012
  2.8440294399999999  6.4834652999999998 16.9367617700000004
  3.0168965100000000  8.2099098900000005 18.9198486499999987
  6.6205102199999999 13.8419366600000000 18.3372145099999990
 11.5466248399999998 13.7407783400000003 18.7377363300000006
 12.2020752100000003  2.9282257299999999 12.0453078399999995
  7.4539253299999997  1.0061626500000000 14.6096088999999996
  0.8546283500000000 12.5874481100000004 17.9170195499999991
  9.8458095199999995  9.8230560199999992 10.8541369700000008
  6.1558279699999998  5.9888681200000002 12.1831302099999998
  6.9627288399999996  1.1495706200000000 16.9602224899999996
 14.6254579600000003  0.2376988400000000 11.0422784400000005
  6.3892116799999998  2.9072901099999999 13.6764493999999992
  9.6989163900000008  7.3071773799999997 15.8804108300000006
  8.7063569699999999  8.4005092599999998 17.7810130800000010
  7.0443001100000000  8.0327844800000001 12.6408929200000006
  7.7607103799999999  4.2909600100000000 12.4643025000000005
  5.7479414599999998 12.1794772699999996 15.4142966700000006
 14.0331710800000007 12.9421189200000004 12.2519688099999993
 10.6933075399999993  2.4353823399999999 13.7664472999999994
  3.3971941499999998  1.3169481199999999 18.3234985500000001
 11.7911040400000005 10.0180134600000006 12.0494692699999995
  3.6405020200000000 13.5744973299999998 11.6880500699999992
  6.5838658700000003  7.8756111600000001 16.6643653600000015
  5.1981116299999996  2.3399648000000002 11.6772730500000002
  9.0159296300000005 11.3408058399999998 12.4811725700000000
  5.9167411899999998 13.6442490099999993 11.7095496600000004
 12.5823649599999996  6.8674718099999996 13.4958154100000005
  3.2866279999999999  1.2019338799999999 12.4261755600000008
  2.6991778300000000 11.7464761800000002 10.7672240299999995
  1.1595236900000001  3.0417186500000000 16.1425869400000011
 12.1639552999999996 12.1571713700000004 11.1506813900000008
 -0.2232990800000000  6.5068968399999996 17.6269947599999988
 12.6390868800000007  6.4811705499999999 10.0542751300000006
  9.9810609600000006  6.5373403999999997 18.4686956000000002
  7.9034104300000001  8.2452867699999999 14.7604409299999997
  0.7567060900000000  1.0645984399999999 14.8693106200000003
  4.7641093000000003  1.9501311600000000 16.5255934899999986
 10.4736998200000002  1.1116712000000000 17.6808654800000014
  2.3576235799999998 13.9018642799999999 15.2511691200000001
  8.5335021399999995  2.3080686500000001 18.2113155599999992
  4.0614513299999997  0.7069160600000000 14.5804320500000006
 12.8049908899999991 11.4496856499999993 15.5473937899999992
 11.3995968399999992 10.0026681400000008 14.4284463499999998
 13.2566681699999993  0.3430576700000000 15.5745176500000007
 12.4654558800000004  0.8861146400000000 11.0711305400000004
 14.3637850799999995  5.4278763000000003 13.8388031300000005
  9.6621655000000004 10.4883998300000005 18.3487579200000006
 12.0754841899999992  4.0450910599999998 16.7041070199999986
  9.0431621399999997 10.3009992900000000 14.5615347600000007
  9.2351295300000000  7.9249858299999998 11.9195686199999997
 13.2078665399999995  8.2004177200000008 11.7089716300000006
  8.3630694000000005 12.3768943999999994 18.0695250099999996
  6.9136918200000004 11.5868931600000007 11.5348237999999998
  5.1558773400000000 10.4846665899999998 18.5315925700000008
  2.8207257999999999 13.7702342299999998 17.5320230099999996
  1.1297172000000000 11.3099533700000006 12.3978401599999994
 10.4640731099999993 13.2149362200000002 12.8912185400000006
  8.5798730899999995  4.5981743399999999 17.7714122600000017
 11.2658513700000000 11.8795492700000000 17.3116146899999990
 11.1888546400000006  4.6531905399999998 10.8044262399999997
  4.4030262999999996  8.7761590999999992 16.1430642700000000
  6.5005420200000001  5.4892147400000004 17.0635416699999993
  9.7734820399999993 13.5259834800000007 16.5222606799999987
  4.8466951199999997 12.5741416000000008 17.5513016300000011
  2.5589288099999998  8.0370336899999995 11.2013607299999993
  3.1339332899999999  9.4264491600000007 18.0537680899999984
  8.8433918200000008  1.1987737000000001 10.9707225899999994
  4.1569559900000002  4.0907443700000004 10.5510334199999996
 11.6382673899999993  1.9751484399999999 15.8220162099999992
 10.6114196199999995  6.1033731700000002 12.5462757400000005
  0.5342995600000000 11.0975763599999997 16.0387122099999999
 14.1698863599999996  4.7785529699999998 16.0548326000000010
  2.2383130900000001 11.6443970199999995 14.4444568899999997
 14.3720984600000001  3.7069468099999998 12.2722011900000005
  9.2958350700000008  0.6764785600000000 13.2196208800000008
  4.4387343899999996 10.4920588800000001 14.4876218500000000
  5.3615902999999996  4.0097791400000000 15.5458243800000009
 12.1916449799999995  7.4340680399999997 17.6883972699999994
 13.7178947200000003  4.4468498700000003 10.0850593100000001
  9.5839697600000004  4.4878207500000000 13.8574780099999995
  0.9955299800000000  1.7018363200000000 12.5988950299999996
  5.1865269600000001  6.0957697000000000 10.0768549299999997
  0.7401822800000000  8.9925412900000001 12.3283637800000001
 10.6947989799999998 14.0872604999999993 10.6376021000000005
  6.5938329600000003  0.8779225899999999 10.4614222899999998
 10.0026750500000006  5.0193729800000000 16.0495979800000015
  8.0300883600000006 11.9228345900000008 15.8260500799999999
 12.0385087199999994  2.8142676700000000 18.7142885899999989
 12.5737530199999998 13.2418547499999999 14.0838295799999997
  1.5058948000000001  2.6238277700000001 18.4022908200000010
  5.8846711000000003 14.0065047600000003 14.0097487600000008
 11.8381855799999993  7.9640186499999999 15.4017757000000000
  5.5380954700000000  9.8802885600000003 12.3990733500000001
 14.0161399899999992  1.6806337600000001 18.6397643600000009
  9.0890457599999994  3.5146671299999999 10.6355843399999994
  0.8936491600000001 10.2371858400000004 18.1510734099999986
  3.9579395000000002  9.8064396699999996 10.7184097999999999
 13.6554733099999996 -0.4250574600000000 17.8063388399999987
