 H Si 
 1.0000000000000000
    14.5422910266661845    0.0000000000000000    0.0000000000000000
     0.0000000000000000   14.5422910266661845    0.0000000000000000
     0.0000000000000000    0.0000000000000000   28.9418346000000000
 H   Si 
  10  88
Cartesian
 11.2806931099999996  3.9359062499999999 18.7552169999999983
  3.6285133200000002  0.0507948200000000 12.3221288999999992
  8.7675994100000008 12.8750613299999994 11.0017711600000005
  6.3478910600000003  5.9324238500000002 19.7217499899999993
  8.9016901799999992  2.5581746000000001 18.7809443700000003
  2.7824662600000001  8.6269799799999998 13.0739361600000006
 11.7437745899999992  3.3001470899999998 18.9169418600000014
  6.8706398499999999  6.6491249600000000 10.1401559599999995
  0.9014152400000000  9.6071466300000008 11.9584060700000006
  4.9524041399999996  6.2976778299999996 15.9318615700000006
  3.4416175999999998 13.8356072599999997 17.2228208500000015
  7.1852485200000000  2.8083836000000000 11.3671807099999995
  6.9450828900000001  1.2561728599999999 16.8007873299999986
  1.5253634800000000 12.6274757700000002 17.5398234399999993
  0.9580636300000001 13.0756028700000009 13.7865869599999993
  0.6849831700000000  7.5824389500000002 16.2335164600000006
  5.8106511200000002  3.8080256000000001 14.6639365399999999
 10.5669810599999998 10.3139361899999997 11.5113205300000008
  2.3230175000000002  6.4801185300000004 17.4931695299999994
 14.2333728100000005  9.3419870899999999 12.7990981900000005
  8.9019855400000001 12.6866133899999998 16.2287889800000009
  5.0245284200000002  2.4971904800000000 16.4341777299999983
  9.8243771700000000  9.0824019699999994 17.5322022500000010
  5.0182383300000000 11.6335081799999998 13.5671750499999995
  8.3256518199999991  4.6595723299999996 12.1958612100000003
  6.7417901100000002  8.4611918100000008 14.7207508199999992
 11.5603704900000004  3.3353776800000001 14.7308831300000005
  9.6542902500000007 12.9451636099999998 14.0248656500000006
  2.1832698000000001  4.1559102699999997 17.0058327200000008
  4.4127981600000004 10.8480311900000004 11.5255141200000004
  6.7672838999999998 11.2051594399999992 11.8905351300000000
 11.0315545999999998  1.0798590900000000 11.7445217799999995
  6.1442285099999996 10.5788396299999992 18.0840366099999983
  7.3298820999999998  6.6996462200000000 11.5507234299999997
  3.5898445099999998  0.8154341400000000 15.4431776900000006
 13.2926956900000004  4.5494271299999998 15.7037377899999999
 12.0590901499999994  1.1890322099999999 15.3367595899999998
  4.5557503600000002  5.7362505500000003 14.4354579399999992
 10.8962104899999996  9.4178241600000003 15.4422259499999992
  8.3348656000000005  6.8544327500000000 15.3168111600000003
 13.9406252800000008  3.6214536100000001 12.5688538500000000
  6.4781800100000000  6.8779482099999996 18.5960583200000009
 12.7140717799999994 11.0291297499999992 12.2811121700000001
 14.3243196299999997  1.1745718999999999 15.8830906800000005
 12.9087280999999994 10.1581116500000004 16.3324915299999986
  3.4094854099999998  7.0665725999999998 10.3512810599999998
 10.7458372600000001 13.0911586500000006 17.5536143299999985
  2.2540521299999998  5.5830123599999997 11.6061220699999996
  5.2235599199999996  2.7099975100000000 12.6869779900000008
 13.6128601600000003 12.5178536099999995 10.7337727199999993
 11.4948788299999993 14.3085167299999991 13.6178024499999992
  7.9582085400000002  9.7429219899999993 13.2609265799999996
  9.6132146499999998  3.7787876499999999 15.9629940900000005
 13.1201139399999995 12.6999180799999998 13.9389298600000000
  1.2739593499999999 12.9367569000000007 11.4181205000000006
 12.0913647700000002  9.3926629300000002 18.4134594999999983
 -0.0508275000000000  3.1290529100000000 17.1367113800000013
 10.1583115999999993  5.2778970699999999 17.6738138199999995
  9.9775755900000007 10.7057666000000005 13.7348453900000003
 12.6261059200000005 12.4718423900000008 16.3041970899999988
 11.0927168500000004  0.8138006600000000 17.4141270299999995
  0.4280514700000000  5.8270018600000002 14.6528843900000005
  9.0514156999999997  2.0346438899999999 17.3937442100000013
  6.2509922700000002 13.5573654399999999 13.6819743599999999
  5.1916398600000004 12.4065668900000006 16.9761595999999990
  2.9810285400000001  3.5975815799999999 12.5726928699999991
  1.4638541400000000  0.7827567100000000 14.3897683399999998
  1.1564711700000001  2.1205863699999998 12.4824737100000007
 10.4873040599999996  4.9434387800000001 11.4603514200000003
  8.5912021900000006  7.0281498500000001 17.6160303999999996
  8.2490264500000006 10.6976264099999998 17.2001861900000002
 13.3128943700000004  7.6238557599999996 17.5957410699999990
  9.1552909400000004  8.2950824900000004 11.8547870700000004
  0.3335571900000000  9.6225796900000002 15.1214149899999999
  4.5607835000000003  7.1299914700000002 17.2945608399999990
  6.8431036900000004 13.7025558200000006 15.9546666800000008
  3.0753894499999999 12.1543978100000007 10.1655667199999993
  3.8741988300000001  8.5988156100000008 12.0460479399999993
  4.1021865399999999  3.6806528200000002 18.2104916699999997
  5.5743682600000000  7.3385491500000004 13.0362848600000003
  4.6130354300000000  0.5635737100000000 13.3186849899999995
  0.5053858900000000  0.5441404500000000 10.9059891699999998
  1.7220560800000000 11.5123402800000001 15.4611042199999993
  5.2453620900000004  9.1765105400000007 16.4176590000000004
  4.0267600600000000 10.9562182299999993 15.5016641400000008
  0.0447680100000000  5.8289421499999996 12.3490518199999997
 11.9140183000000004  6.2044144699999997 16.5280149300000012
  8.6388071300000000  1.0714553000000000 11.7556310899999996
 11.6834070000000008  3.2333626899999999 12.4039775700000003
 11.0151142300000000  6.9614583200000002 12.4752545999999995
 10.6360685900000007  7.2128655699999999 14.7850705300000005
  2.4827147400000000  4.7031433500000004 14.6693040400000001
 14.1804684000000005 13.9213300300000000 17.3479080400000001
  7.9721603500000002  4.6635856999999996 14.5716977399999994
  8.1342526199999998 13.3873243100000003 12.2810341399999992
 13.1708974100000002  7.5400475900000004 11.8040178600000001
 12.8336369200000000  0.1277181300000000 10.4646353399999992
 13.2351110199999997  1.3915497500000000 18.4211009300000015
