 H Si 
 1.0000000000000000
    14.5353600448027152    0.0000000000000000    0.0000000000000000
     0.0000000000000000   14.5353600448027152    0.0000000000000000
     0.0000000000000000    0.0000000000000000   28.9377513999999998
 H   Si 
   8  95
Cartesian
 12.5846000000000000 11.1090999999999998 18.7997514000000017
 14.1928000000000001 13.2606000000000002 15.4675913999999999
  4.1690199999999997 13.2334999999999994 10.8523104000000004
  6.4715800000000003  4.3293999999999997 14.8793114000000006
  7.7352999999999996  9.0824900000000000 17.0687514000000000
  3.0045199999999999 10.6538000000000004 10.5061053999999992
 13.7833000000000006  4.8937499999999998 16.8647713999999986
  0.7513320000000000  5.5391500000000002 14.9400513999999998
 11.5609000000000002 14.4830000000000005 10.1769163999999996
  4.0135699999999996 13.3260000000000005 18.1863513999999995
  4.6724800000000002  8.5241900000000008 18.0730813999999995
  7.9909699999999999  2.3373200000000001 16.3924714000000016
 14.3510000000000009  4.1340199999999996 12.7637014000000004
  8.2385599999999997  8.6921099999999996 11.5137613999999999
  2.7342399999999998  2.2033600000000000 17.6614614000000003
  6.6235900000000001  7.2969700000000000 18.5382913999999985
  0.1706430000000000 11.4893000000000001 12.0908514000000000
  0.0837650000000000  6.6617100000000002 15.4913114000000007
 12.8109999999999999  0.4804000000000000 13.6372114000000000
  9.5995399999999993  9.7837200000000006 18.6113214000000013
 11.8292999999999999  9.2817299999999996 15.3811414000000006
  6.6960400000000000  4.1610600000000000 11.2418914000000001
  0.4747620000000000  0.7791830000000000 14.5561413999999996
  5.8960999999999997  1.1024200000000000 10.3943534000000000
 13.7590000000000003 10.2828999999999997 16.2773913999999991
  4.1412000000000004  0.3115550000000000 14.4947514000000002
  4.9368400000000001  2.3574500000000000 13.7976413999999998
  3.1679599999999999  5.9408899999999996 13.0468613999999992
  8.4129799999999992 10.8173999999999992 14.8305214000000003
  7.3406399999999996 12.1934000000000005 10.1872013999999993
  7.0124500000000003  9.2167700000000004 15.7617913999999999
  5.5576499999999998 13.4495000000000005 11.2243314000000005
  6.2722499999999997  7.9116400000000002 12.7337114000000007
 13.4169000000000000  0.5418700000000000 11.3037113999999992
 10.1197999999999997  4.7852699999999997 16.8438614000000015
  9.9988399999999995  1.7788200000000001 10.4175214000000000
  7.5965299999999996 13.7363999999999997 16.7830514000000015
 12.4606999999999992 11.6965000000000003 12.4194513999999998
  2.0735299999999999  4.8528000000000002 10.0967684000000002
 10.0836000000000006  1.5128100000000000 16.3090714000000006
  5.3181300000000000  5.9137700000000004 11.9460213999999993
  0.1845620000000000  9.0013100000000001 18.1077514000000015
  9.1905800000000006 12.1290999999999993 11.5426213999999998
 10.1437000000000008 10.5710999999999995 16.3278414000000005
  7.7151800000000001 13.1197999999999997 14.4716813999999996
  4.2298400000000003  0.5376270000000000 16.8943213999999990
  2.5851799999999998  2.7912200000000000 11.3306413999999993
  4.4037699999999997 11.1334999999999997 14.5591913999999996
  0.7911470000000000 13.7339000000000002 11.5015514000000003
  7.2266800000000000  7.1438100000000002 14.7905814000000007
 12.4274000000000004  7.0774699999999999 16.1407114000000007
  8.3679400000000008  3.9073400000000000 12.9156414000000002
 14.2469000000000001  1.5056900000000000 18.7851114000000017
 13.4556000000000004 12.5570000000000004 16.6924114000000010
  4.0165300000000004  6.1540400000000002 10.0000000000000000
  6.4206700000000003  1.0943600000000000 17.4799213999999985
  3.0083400000000000  9.3048900000000003 11.0972513999999993
 14.2720000000000002  7.8160400000000001 11.8871213999999998
 11.1938999999999993  2.1394099999999998 14.0838414000000007
  9.2108299999999996 10.1568000000000005 12.8377713999999994
  3.3523900000000002  4.0207199999999998 14.4481914000000007
  1.3083100000000001  5.4038899999999996 18.9377513999999998
  3.2540600000000000  4.2571399999999997 18.3175814000000017
  0.7139770000000000  8.3248700000000007 13.8859113999999995
  4.4142299999999999  9.4039099999999998 12.9589014000000002
  7.0129099999999998  2.9617000000000000 14.4855114000000000
  9.1318800000000007  5.9739199999999997 13.7352013999999993
  0.7068730000000000  9.5956700000000001 10.6415573999999999
 11.0335000000000001  5.5180999999999996 14.9704514000000000
 11.2370999999999999 12.6241000000000003 16.3263813999999989
  0.2768340000000000 13.7012000000000000 18.0714614000000005
  0.6356510000000000  1.7477700000000000 16.6868914000000004
  1.0406100000000000  5.8987299999999996 11.9067013999999993
  2.1335600000000001 12.2166999999999994 17.4762413999999993
  4.1352900000000004  5.1619500000000000 16.4130013999999989
  7.9930899999999996  4.3455000000000004 17.3763013999999991
  4.8331900000000001  2.7079100000000000 11.5310313999999998
 12.3688000000000002  6.6416800000000000 18.5052014000000007
  9.5621799999999997  1.7669999999999999 12.6930814000000005
  2.3254800000000002 11.8735999999999997 15.0568513999999993
 13.5631000000000004  3.4857200000000002 16.4842614000000012
  0.4962080000000000 10.6011000000000006 14.2410213999999993
  9.7740700000000000  6.9879100000000003 11.7817413999999996
  9.3707600000000006 13.8308999999999997 13.2228914000000000
  1.5960700000000001  2.6940200000000001 13.4902414000000004
  1.2528900000000001  7.1520999999999999 17.3376613999999982
 11.5677000000000003  2.9744700000000002 17.4444413999999988
  5.5340600000000002 13.0763999999999996 13.5248714000000003
  5.2299100000000003 10.3534000000000006 16.5610414000000006
 13.5531000000000006  2.9149799999999999 10.8853653999999995
 12.5617999999999999  3.8428800000000001 14.3934514000000000
 11.4159000000000006  3.7178100000000001 10.1851654000000007
  9.6177399999999995  5.3410900000000003 10.0982424000000002
 11.2433999999999994 12.0603999999999996 10.4761164000000004
 11.9710999999999999  7.8338500000000000 11.5706313999999999
 11.4444999999999997 13.1144999999999996 14.0681513999999996
  6.4037100000000002  5.9367200000000002 16.6427614000000013
  2.1566100000000001 13.8931000000000004 13.7784814000000004
  3.3751899999999999  7.3381200000000000 16.4808513999999988
  9.8239500000000000 13.9905000000000008 17.3346313999999992
 11.5273000000000003  9.5847300000000004 13.0707313999999997
  3.0009700000000001  8.0089500000000005 14.1798614000000001
  6.0093600000000000 12.1059000000000001 17.8459214000000017
