 H Si 
 1.0000000000000000
    14.5295791732167459    0.0000000000000000    0.0000000000000000
     0.0000000000000000   14.5295791732167459    0.0000000000000000
     0.0000000000000000    0.0000000000000000    7.4836115317352174
 H   Si 
   4  54
Cartesian
  3.7862399999999998  9.5090100000000000  2.3732400000000000
  5.1641700000000004  0.5390650000000000  3.3844099999999999
 13.5937000000000001 13.7339000000000002  1.4605600000000001
  3.4092699999999998  2.0393800000000000  4.0236400000000003
 12.0871999999999993  4.6926800000000002  3.9453999999999998
  9.4349299999999996 13.4588000000000001  4.9588400000000004
 10.8908000000000005  2.2294900000000002  1.5288600000000001
 13.1005000000000003  9.1429399999999994  2.1067300000000002
 10.1944999999999997  7.7063600000000001  3.8753600000000001
  8.6492299999999993  1.5630999999999999  1.9466900000000000
  4.5808499999999999  5.0443600000000002  0.5087450000000000
 12.0045999999999999  5.6936700000000000  1.6383700000000001
 13.8569999999999993  6.9947800000000004  1.1481600000000001
 11.5513999999999992 10.0823000000000000  0.6185120000000000
  4.1626000000000003  7.2618700000000000  7.2362799999999998
  0.3481690000000000  6.1734600000000004  6.7387300000000003
  1.0579700000000001  3.8897499999999998  0.0501862000000000
  7.5615600000000001  2.6051400000000000  3.7546300000000001
 10.4880999999999993  4.5274400000000004  5.8077600000000000
 13.6349999999999998  2.7611400000000001  3.9534199999999999
  7.4895800000000001  2.0069599999999999  7.3922400000000001
  6.7302400000000002  4.4439500000000001  0.1092860000000000
  4.1760900000000003  8.1590600000000002  2.0122000000000000
  0.8734690000000001  3.7237800000000001  2.6879800000000000
  9.1914400000000001  2.5051399999999999  5.6432700000000002
  7.5791399999999998  5.9903300000000002  1.8109599999999999
  9.4891600000000000  8.7730800000000002  0.2827010000000000
 13.6378000000000004  6.4210700000000003  4.7251099999999999
  7.9010800000000003 12.5220000000000002  6.4874000000000001
  6.5178500000000001  8.0537700000000001  1.5057400000000001
 12.3140000000000001 10.2809000000000008  5.7763600000000004
  2.8284600000000002  3.3858600000000001  4.0098599999999998
  0.5446990000000000  6.0515800000000004  2.9654300000000000
 12.0937999999999999  1.1307000000000000  3.2876500000000002
  8.4888800000000000 12.1362000000000005  1.4453000000000000
  6.1785699999999997 14.5129999999999999  6.5540599999999998
  4.2867699999999997  4.8827100000000003  2.8946800000000001
  7.1165099999999999  6.0578000000000003  5.7346100000000000
  7.9593800000000003  9.9836600000000004  6.1842800000000002
  8.0842600000000004  9.8794199999999996  1.9934000000000001
  3.0525799999999998  4.2043999999999997  6.3747600000000002
 10.9297000000000004 12.0668000000000006  1.9563500000000000
 11.9121000000000006  3.8898199999999998  0.2264440000000000
 10.8423999999999996 11.4933999999999994  4.2711699999999997
 10.9197000000000006  0.8053860000000000  5.3834499999999998
  9.9681300000000004  6.7639399999999998  1.6730400000000001
  9.1595999999999993  9.6534399999999998  4.1154799999999998
  6.3883000000000001  0.5605329999999999  4.2884599999999997
  2.8478599999999998  6.7766599999999997  3.3918599999999999
 13.7451000000000008  2.9704000000000002  6.3825099999999999
 12.5101999999999993  8.3737399999999997  4.4238900000000001
  9.3669700000000002  6.6044099999999997  5.9652099999999999
 12.2180999999999997 14.1492000000000004  1.5548400000000000
  7.9699600000000004 13.9968000000000004  2.9030700000000000
  6.2841699999999996  8.0748899999999999  6.5183299999999997
  6.6602699999999997  4.9460800000000003  3.6014499999999998
 12.3011999999999997  1.2200800000000001  7.2797799999999997
  2.5891600000000001  6.5495700000000001  5.7651100000000000
