 H Si 
 1.0000000000000000
    14.5342042383440404    0.0000000000000000    0.0000000000000000
     0.0000000000000000   14.5342042383440404    0.0000000000000000
     0.0000000000000000    0.0000000000000000   24.7518899999999995
 H   Si 
   4  53
Cartesian
  8.8301499999999997 10.8795999999999999 11.2099200000000003
 11.6465999999999994 13.7704000000000004 10.6309579999999997
  9.1014499999999998  2.3464999999999998 11.7357600000000009
  9.6145899999999997  0.0423447000000000 11.3658000000000001
  5.8457299999999996  8.7005800000000004 14.6327099999999994
 11.2036999999999995  1.9867200000000000 14.4924499999999998
 11.5923999999999996  5.4386400000000004 11.7514299999999992
 13.2646999999999995  4.5221099999999996 10.4979030000000009
  6.9592499999999999  0.9249050000000000 10.4077459999999995
  7.5872099999999998  7.3005899999999997 13.9538700000000002
  3.3818999999999999  5.8755699999999997 13.2904699999999991
 10.7220999999999993  4.0555199999999996 13.4758499999999994
  5.9862399999999996  3.9412400000000001 12.9796899999999997
  0.9201690000000000  4.9812900000000004 10.8033070000000002
  2.0709399999999998 10.2601999999999993 11.6034900000000007
  8.5568299999999997 10.7646999999999995 14.5702099999999994
  2.5786500000000001  2.2844699999999998 13.3297500000000007
  1.2709600000000001 11.4707000000000008 14.7518899999999995
  3.3973499999999999 12.2057000000000002 12.0501199999999997
  9.3451000000000004  8.8129600000000003 13.6668000000000003
  1.0293600000000001  5.5797299999999996 13.2223600000000001
 13.0216999999999992  1.9938800000000001 13.0675399999999993
  7.3691100000000000  0.1745750000000000 14.1349400000000003
 14.0783000000000005 12.1052999999999997 10.7250209999999999
 12.4895999999999994  2.3488199999999999 10.7750179999999993
  9.7268000000000008 14.4954999999999998 14.4837600000000002
  3.0364100000000001 12.7797000000000001 14.2380800000000001
 10.0413999999999994 12.4524000000000008 13.4279899999999994
  9.2305700000000002 13.1739999999999995 11.3928399999999996
  6.9778700000000002 13.7348999999999997 11.9310799999999997
  0.4805260000000000  9.7771699999999999 13.2146799999999995
  3.2039700000000000  1.7653700000000001 11.0962599999999991
 10.0345999999999993  5.2428999999999997 10.0000000000000000
  3.0292500000000002  8.4083699999999997 10.4814070000000008
 11.1714000000000002  7.7776600000000000 14.5748999999999995
 14.3864999999999998  7.4406400000000001 13.8599300000000003
 12.1420999999999992 11.8161000000000005 14.0321599999999993
  0.1448960000000000  0.2517450000000000 13.2837599999999991
  5.6920200000000003 11.7579999999999991 11.6916300000000000
  9.2352399999999992  9.3847400000000007 11.4107800000000008
 13.9359000000000002 13.1059999999999999 14.6378000000000004
  3.9992200000000002  3.9091700000000000 14.2919999999999998
  5.3715299999999999  2.6190099999999998 11.0828299999999995
 12.4395000000000007  7.2964799999999999 12.7145899999999994
  4.3825300000000000  6.7304500000000003 11.3710500000000003
  7.9079400000000000  5.0744899999999999 10.9819700000000005
  7.2439400000000003  8.6077200000000005 10.6249380000000002
  8.7438900000000004  3.5235900000000000 12.6160300000000003
 12.4616000000000007  8.6654900000000001 10.8801590000000008
  6.6903600000000001  6.6955000000000000 11.9068100000000001
  2.6161900000000000 14.0693000000000001 10.5986069999999994
  0.3053510000000000 14.2843000000000000 11.0907699999999991
  2.1927800000000000  0.3263750000000000 14.4529899999999998
  7.3131199999999996  2.5116200000000002 14.1166199999999993
  0.4357590000000000  3.3328500000000001 13.7370199999999993
  6.2143600000000001 10.8582999999999998 13.7841900000000006
 13.1138999999999992 10.5931999999999995 12.2521500000000003
