 H Si 
 1.0000000000000000
    14.5237936979055426    0.0000000000000000    0.0000000000000000
     0.0000000000000000   14.5237936979055426    0.0000000000000000
     0.0000000000000000    0.0000000000000000   25.4396014000000008
 H   Si 
   1  62
Cartesian
  3.5202800000000001  8.1949699999999996 14.5963913999999999
  8.7646700000000006  7.9994699999999996 10.4323923999999995
  3.8490500000000001  5.2293300000000000 10.1802294000000000
  5.9612400000000001  2.7502900000000001 12.2573614000000006
  5.0138499999999997 10.4514999999999993 10.3302604000000002
  3.9504999999999999  0.3278920000000000 14.6079714000000003
 14.0848999999999993  3.4296199999999999 11.5615714000000001
  2.6410600000000000  1.3822500000000000 11.1923013999999998
  4.0033399999999997 14.2086000000000006 10.3021563999999994
  5.1601200000000000  8.8876799999999996 12.0603814000000007
  2.7400400000000000 11.0578000000000003 10.5397403999999995
  2.1403699999999999  1.4316800000000001 13.5918314000000002
  9.4647699999999997 10.4773999999999994 15.1023914000000001
  6.0040500000000003  4.2621599999999997 14.0496314000000009
 12.3981999999999992  4.0481400000000001 10.0021637999999999
  7.4424900000000003  6.2264600000000003 13.7704114000000004
  1.4029700000000001  9.4578500000000005 13.4070313999999993
  8.0993600000000008  1.3695400000000000 14.7711514000000008
  1.4975499999999999  9.2788299999999992 10.0000000000000000
  8.5483200000000004 10.1044999999999998 12.9993713999999994
  5.8042299999999996 11.8344000000000005 14.5000114000000000
 12.2190999999999992  8.5272299999999994 15.3518614000000007
 11.3861000000000008 10.0512999999999995 13.8196113999999994
  2.6546400000000001  5.8996300000000002 12.0735413999999999
  2.8271700000000002  8.1373499999999996 11.9904513999999995
 12.2014999999999993  9.8727900000000002 10.6314744000000001
  0.3963500000000000  5.5061400000000003 12.5493214000000002
  9.0688800000000001 12.2652999999999999 12.2499114000000002
  7.7370900000000002  2.6406999999999998 10.6714103999999992
 12.6972000000000005  4.8150399999999998 15.3450114000000006
  0.0012856400000000  0.3239670000000000 13.9855414000000007
  9.7036700000000007  2.8642200000000000 11.9092514000000005
 13.8324999999999996  7.0688100000000000 11.5144213999999998
  9.9850300000000001 -0.0045967000000000 15.0298213999999994
 12.5401000000000007 12.1239000000000008 13.7792214000000008
 11.6373999999999995  6.8208700000000002 12.1214914000000000
 10.8712000000000000 13.5875000000000004 13.0916213999999993
  6.2939800000000004  9.5732700000000008 13.9125613999999995
 10.6096000000000004  5.0052500000000002 10.9810213999999995
  0.3023710000000000  5.2328400000000004 14.8934414000000004
  6.7766099999999998 13.1585999999999999 12.7937613999999993
 13.0603999999999996  1.9281100000000000 13.0874714000000001
 14.4631000000000007 12.9484999999999992 12.5862113999999998
  3.6943999999999999  5.0987099999999996 13.9427413999999992
 11.3505000000000003  1.0667400000000000 11.8432113999999995
 10.5174000000000003  8.9138800000000007 11.8528313999999995
  9.3193800000000007  5.4707600000000003 14.8663013999999993
  2.0651400000000000  3.6012000000000000 14.9534014000000006
 11.6838999999999995  2.8357600000000001 14.7963514000000007
  9.3805099999999992  3.1992799999999999 14.0978214000000008
 14.2428000000000008  9.3357299999999999 11.5042513999999994
  3.4154700000000000  6.8605700000000001 15.2855714000000003
  6.1315400000000002  0.7153880000000000 13.6406814000000001
  4.2470499999999998  3.0129600000000001 10.7670714000000007
  2.0279500000000001 11.6681000000000008 12.8564114000000007
  6.7024600000000003  7.8625400000000001 15.4396014000000008
  6.8128900000000003  7.1801399999999997 11.5844614000000004
  5.8606499999999997 12.8091000000000008 10.7532023999999993
  0.0940612000000000  8.8074300000000001 15.2856214000000001
 14.3824000000000005 13.2890999999999995 10.0675053999999999
 11.3386999999999993  6.4727800000000002 14.3436014000000007
  3.5606200000000001 12.5427000000000000 14.6455914000000007
  0.7650390000000000  2.0421900000000002 10.0164513999999993
