 H Si 
 1.0000000000000000
    15.3583592873718118    0.0000000000000000    0.0000000000000000
     7.6791796436859050   13.3007293033126572    0.0000000000000000
     0.0000000000000000    0.0000000000000000   31.7562948563737564
 H   Si 
  32 128
Cartesian
 11.5467494037877785 12.7588958237517520  9.1819177387174467
  5.1532305447419358  3.0192581838458863  8.9029896287171457
 10.9935698915164775  6.0800342770484832  9.3650520948793403
  7.7149321984020602  6.5395093928939296  9.1730707694357516
  9.6704517776702410  9.7550117389720228  9.0351646368625769
  5.7683154414349636  9.8420992357677353  9.0088370604530859
 12.8469601281275239  9.9150736085153586  9.2884895231364641
  3.8390698137362715  6.5397945616759836  9.2210850322127023
  3.8139447712962746  0.0996886851545167 22.6296461135824494
  6.4393513650448861  3.2905454998832608 22.7554577781868232
  6.9281971121151553  6.9717210800247855 22.6911368083406551
  9.5969084166463006 10.0932637586348388 22.7582007907071180
 13.4954813676281979 10.1699539425877763 22.8024742452063585
 11.2036328672248811  6.3337474721481266 22.7154505660379478
  7.7090067690303004  0.1730499708262715 22.5414041921232133
  2.4131789526217386  3.6841126563363029 22.7701555521610643
 19.2710804870874526 13.2740545233506637  8.9334324784733568
 17.1105847221605067  3.6070475190299125  9.1388369917523882
 13.5218507710807376  3.2918082597485498  8.9369176901927307
 15.0708327244796880  7.2653262996650625  9.0256316466850315
 17.5922286586788736 10.0858883829964476  9.1199750606696952
 15.2284280357555843  0.6896479500823999  9.1188050877723921
 15.3673508346090877 12.7910823241890821  9.1151384596897707
  9.6704880176869850  3.3168933482568765  8.8680641869299350
 11.5814530274010821  0.1062439461446202 22.6032640072399111
 13.4557923703622855  3.2907328712785739 22.7204952711645483
  9.8462737874110893  2.7119646936246280 22.4754633212726418
 15.3435523339064819  0.0728139914287267 22.6236588853569138
 15.3339918222343066  6.6293073991350928 22.6644708777645540
 18.9087191602380216  7.3406762204187208 22.2822972993720718
 17.2399546145472158 10.1595228754593911 22.7521154624649746
 21.1168138715563316 10.0708199265018372 22.7026972799020186
 11.5074722621011514 11.0098153334908559 15.4930536139533057
  0.9207869124661097  0.6928696895963198 10.1688623754735286
  0.1207677398652857  0.1174937197658180 12.3137955530522625
  1.9883650608896395  1.1791220539176135 13.2711744627926169
  1.9937859476384299  1.1560671028794862 15.6051327962957789
  4.6965924669675960  0.0970858093804468 10.2275897706869596
 11.5432249977449182 13.2656222068384295 12.4320161805437337
  3.8406420854495291  4.4477499400895910 13.0958154770250559
  3.8364807806452936  4.4061262633641878 15.4445026821595466
 11.4630076053136936  6.6684661036150299 12.4931810269022137
 11.4799390157496362 11.0332030495379954 13.1424549219581159
  4.5822400490179707  2.4271726903958517 10.1295480174277159
  5.5963863250769217  3.1763902359835572 12.1863363578522979
  9.6213446976046555  9.8576029335873532 12.3258080805321875
  9.6569985039919963  8.8457858348793739 10.1978638964052486
 14.5261976758863813 12.4089586331479165 10.2697164478618870
  5.7542125883584019  1.0707378351110983 13.2471342581289999
  5.7742887708991999  1.1098244112643649 15.5601114253969541
  7.5978669087641864  4.3659920381997148 12.8213909571222437
  7.6592541810513541  4.3725093053202526 15.2457063272107138
  7.6919761231660448  7.5683830981893925 10.2339951159548690
  7.6527840334848705  6.7044989659843113 12.4247291800630393
  5.7710975811197036  7.8091431860953326 13.3207215325334598
  5.7785099184246143  7.7844349971331663 15.6238250537086003
  9.5612885909812455  7.7511224855928784 13.3652519109489401
  9.5849576835782564  7.7611956377729010 15.6746189886346254
  7.7290568897145402 11.1014811578304098 12.9566943980291729
  7.7083476910724524 11.0768020259990490 15.3517789162722593
  2.2050491128235734  2.6649252343607865 10.1823403263297347
  5.8033486799716387  9.9213483543092043 12.2874631505210630
  5.7867573197536117  8.9224682867203917 10.1620308809862276
 11.3596499902838453  7.2365352833051162 10.2326858372291323
 13.4124119727556792  9.9331300262597182 12.4977218554609539
  3.9084401741755501  2.2470694223210095 16.4420805993831429
  3.9684063081690049  2.2467051502428159 18.8540155784305163
 11.5352052010670416 13.2306277177915668 19.3617878771574077
 11.5178170584104400 12.3780210769326988 21.5631187233733073
 13.4239195066481685 12.1311645413243934 18.4741689747523061
  2.0429515704206893  3.4380916835800992 19.5099505437686283
  9.4673881276427654  3.8111593484067354 21.5574493901497775
  5.9776668732438010  3.3816153192285792 19.4880659295236676
  7.0423493970061664  3.9737362143526602 21.5878116134618985
  7.7199798366271448  2.2055487956036752 16.2102271205307780
  7.7308082943332472  2.1533023008874661 18.5579639397122484
 13.4433362507252312 12.1493277727353775 16.1746137860630235
  7.4993986845662324  6.6520019055708710 19.4401865383846761
  6.4143880358608918  6.1938132624855999 21.5451339917436471
  5.7844127601311257  5.4943486179170007 16.1162731672534782
  5.7513918306648684  5.4905302072415951 18.4219469889518805
  9.4987945066157913  5.4985382461053556 16.2294371121949759
  9.4458348801599268  5.4963424047391092 18.5775071833975680
  9.6081760901046511 12.1895261796342247 16.1709002767704710
  9.6094854054237580 12.1773979847707317 18.4749298465304896
  7.6840924078250792  8.9243040186577307 16.3844320183587548
  7.6664783732832760  8.9167155514178607 18.7610794467780053
  9.5975337768564444 10.0485184490822412 19.4863783015803449
  9.5971251415205945 11.0309398418517635 21.6185134184109629
  7.6998738395584390 13.2545237652469332 19.3330767654234705
 11.5113176307996561  8.8441144493788819 16.4788545099590493
 11.5034601538180947  8.8156735454420616 18.8739219724166958
 13.4602921572214456 11.0655370432008926 21.6303073817400424
  7.6793203612556766 12.3793222467300890 21.5320593458773715
  3.9890488686594110  6.1994644910496319 21.4417979304426147
 13.4299326991022880 10.0186063783586121 19.5219991979028258
 11.5787623882588395  0.8433246090555563 10.1126373300249330
 11.5842863727708920  0.0644971675294207 12.3047239700314908
  9.5902576363902909  1.0669804304174071 13.0657302978981420
  9.6269971623370285  1.1016081252535399 15.4151677030664676
 11.4559210122771020  4.4075698463505706 13.1606598436327324
 11.4692679850130581  4.4207960207350574 15.5048778922380830
 13.5052942140060388  1.1686969448748723 13.1462034344653951
 13.5128869231754685  1.1586340929417891 15.4893225584585839
 19.2439740254597744 11.0838096362734788 15.3413226984581890
 19.2504052575718845 11.0927556109676289 12.9745150701583309
 15.3107057926522945  4.5393991051707987 12.9142723736695100
 15.3282940052728645  4.4344224025212000 15.3257452337174911
 12.7351513909407696  2.9012233031753412 10.1112608727614628
 13.3719079184648546  3.3516162654559101 12.2930142764629835
  9.6108002511457808  3.2697844544515475 12.2289795433236907
 17.2673923911320628  3.3620683584440556 12.3758820793165381
 17.3098912485760899  9.9439055984238323 12.3738309472158434
 17.2648294208198934  7.8085795284971500 13.3179772305788937
 17.2740485779238142  7.7902343480201246 15.6282024770485712
 13.3948943468090143  7.7571906166634834 13.3026886132978763
 13.4290693957749028  7.7739230029851454 15.6351421808047615
 15.3435438873220207  8.1014601160919799 10.2155926728134876
 15.3322817221427368  6.8759575519998144 12.3151862811312487
 17.4389966416704851  9.0854468438308942 10.1965411618976614
 19.2306582438526554  7.5725670250434796 10.2780378197915923
 19.1998942767402099  6.7409148605273632 12.4877445175922315
 13.9629733542893675 10.0568220834091964 10.2550942274047081
 15.3707385804940451 10.9863924092694525 13.2436598901436540
 15.3957811187369096 11.0072995931204343 15.5580857296292123
 15.2964071748767871 13.1723773015899503 12.3956292524640990
 10.3807605492339281  2.8729739660212470 10.0724719997527181
 11.5487155260854308  2.1949660544609499 16.2822091576539059
 11.5870814457107887  2.1874738929351381 18.6657478935586916
 19.2199458950937725 13.2239100349404186 19.3146409406717012
 19.2203196785507231 12.3972841611620996 21.5265518675728451
 15.4128108251423814  2.2717118556529772 16.3496393805904106
 15.4496030126244364  2.2665204181069161 18.7738368980140251
 13.4786337522482782  3.3592144660642935 19.4483653809385011
 13.4229085165403283  4.2680413941381641 21.6139997389030292
 15.3757228708687972 12.4279177946631023 21.4960914093160014
 17.5538074648530831  4.5548817480495840 21.5975423280618593
 21.1457167873707341 12.2077374588152132 18.4157201352730233
 11.3158038282858247  5.4111389104079448 21.5638464479773191
 15.3239885081114782  6.5357490984409159 19.3993042765091666
 15.4035426724783111  5.6227790873516206 21.5825094521663949
 13.4241171425455832  5.5169329013990076 16.1965551143871451
 13.3908463311920372  5.5015620663464748 18.5110224992018644
 17.2466614484889149  5.5178284474851713 16.1376066978591162
 17.2326485687365043  5.5174711260831328 18.4415384747188575
 21.1565006028289773 12.2066976847632347 16.1010518085027527
 15.3675965258736156 13.2006048936581699 19.2641771813030580
 19.2122763862448096  8.9397241302171899 18.6905931232169493
 15.3548699471912364  8.8406251704973471 16.4794413520899745
 15.3562048805357136  8.8448569753187609 18.8564031371482486
 19.2122126743881481  8.9281591045460775 16.3288714259866943
 17.2901285431645029 10.0477311040756074 19.4630704093218334
 17.2883761206258946 11.0648441421554118 21.5877743884967863
 17.3286718209911186 12.1797702921706286 16.1284808234878554
 17.3101593864566325 12.1631609858482630 18.4314335842844557
  9.6232974391878159  3.2703487749695577 19.3122136222563405
 19.1698434804207913  6.6303162895804437 19.1619371380970911
 21.1223526087969020 10.0915481756272492 19.4248758794532286
 11.4224336186783422  6.4804922699594290 19.4278508091376452
 21.1205097575029086 11.0243285359151546 21.5762896682073659
