 H Si 
 1.0000000000000000
    14.5342042383440404    0.0000000000000000    0.0000000000000000
     0.0000000000000000   14.5342042383440404    0.0000000000000000
     0.0000000000000000    0.0000000000000000    8.1933487966905219
 H   Si 
   8  62
Cartesian
 14.3872000000000000  3.4669699999999999  7.7294400000000003
  5.6309699999999996  3.8441000000000001  4.1915699999999996
  4.8592500000000003  5.3315799999999998  6.9027099999999999
  1.7300700000000000  6.5254899999999996  8.1258999999999997
  6.5651099999999998 14.7743000000000002  4.8502799999999997
  6.3772399999999996  3.3979100000000000  8.2227599999999992
  3.1223700000000001  4.4244800000000000  3.9501700000000000
  2.9492300000000000  4.7214299999999998  1.5088800000000000
  9.9978899999999999 11.2316000000000003  0.9203420000000000
  7.9635699999999998 12.4802000000000000  0.9084850000000000
 10.2202999999999999  5.0354500000000000  6.0462800000000003
  6.9003800000000002 11.8437000000000001  3.0218099999999999
  4.4059999999999997 12.6418999999999997  6.8787200000000004
  9.9068199999999997  0.8114820000000000  2.9699300000000002
  5.3141499999999997  6.8455599999999999  2.7333699999999999
  9.9465299999999992  1.1124700000000001  7.2309700000000001
  3.5765500000000001 11.7042000000000002  4.8491400000000002
  1.2005699999999999 12.0600000000000005  4.8428800000000001
  4.0001300000000004  8.9355300000000000  7.8005800000000001
  3.3949400000000001  9.4458800000000007  5.5957200000000000
  0.6782230000000000  9.3148300000000006  0.6974900000000001
  9.0145400000000002  3.1055700000000002  6.2014600000000000
  7.3709699999999998 13.4510000000000005  4.9686800000000000
 12.5024999999999995  4.4386700000000001  5.4715800000000003
  1.4187600000000000 11.5456000000000003  0.7143969999999999
 10.9291999999999998 10.5303000000000004  5.0796599999999996
 10.1245999999999992  9.8851600000000008  2.9086699999999999
  9.5296599999999998 14.4102999999999994  1.0021500000000001
  7.3481399999999999  9.9656000000000002  6.6546799999999999
 12.6271000000000004 13.2703000000000007  2.9284699999999999
  6.2235100000000001  8.0349599999999999  7.5079399999999996
 10.3645999999999994  5.9909100000000004  8.1659299999999995
 12.8368000000000002 13.5729000000000006  7.2610700000000001
  7.3467000000000002  4.1726700000000001  7.4221100000000000
  0.1321150000000000 11.8133999999999997  2.8460999999999999
  4.4883499999999996  8.8682700000000008  3.6584699999999999
  9.3330300000000008  2.8147000000000002  3.8698500000000000
  9.6042400000000008  9.8527199999999997  7.1709699999999996
 11.8721999999999994  6.6208999999999998  2.8300000000000001
 11.8055000000000003  8.7874199999999991  1.8547800000000001
  1.1999700000000000  9.6800099999999993  5.2313599999999996
 12.8581000000000003  3.4290699999999998  7.6542000000000003
  9.6365400000000001  6.4130700000000003  4.1252800000000001
 13.8987999999999996  9.5969599999999993  2.5579499999999999
  4.5465200000000001 11.2635000000000005  2.7044299999999999
  6.1876300000000004  5.2236700000000003  4.2607900000000001
 12.1540999999999997  1.1566300000000000  0.0595892000000000
  0.1092700000000000 12.1364999999999998  7.1123799999999999
  8.3023699999999998  4.7677100000000001  3.1141500000000000
  9.7445599999999999 14.2485999999999997  5.0900699999999999
 12.1821999999999999  1.1002400000000001  2.5299700000000001
  3.3607000000000000  5.3537900000000000  2.7707700000000002
 11.0488999999999997  8.1870200000000004  8.0191999999999997
 11.6725999999999992  3.2679399999999998  3.4327800000000002
  2.2870100000000000  7.7047800000000004  0.5468900000000000
 11.3821999999999992 12.9779999999999998  0.9432550000000000
  6.9018699999999997  9.7226700000000008  4.2934200000000002
  3.7383299999999999 11.2482000000000006  0.5101890000000000
  6.1991600000000000  5.9800199999999997  6.4225599999999998
 13.1907999999999994  6.7552599999999998  4.8120799999999999
 14.1677000000000000  9.6964199999999998  6.9278199999999996
  2.4168500000000002  7.5022799999999998  3.0220300000000000
 11.7323000000000004  4.6233700000000004  1.3692899999999999
  6.7375699999999998 12.2661999999999995  7.0895700000000001
  8.5648300000000006  8.3392900000000001  3.2304800000000000
 11.7283000000000008 12.9009999999999998  5.2251099999999999
  8.2767199999999992  5.6265299999999998  0.9114050000000000
 12.3612000000000002  8.8006600000000006  5.9186800000000002
  0.4127220000000000  7.9721500000000001  3.9181200000000000
  7.1598699999999997  7.6001300000000001  1.3997599999999999
