 H Si 
 1.0000000000000000
    14.5538280032082756    0.0000000000000000    0.0000000000000000
     0.0000000000000000   14.5538280032082756    0.0000000000000000
     0.0000000000000000    0.0000000000000000   25.7223709999999990
 H   Si 
   2  60
Cartesian
  4.2637799999999997 14.5729000000000006 12.4126110000000001
  2.7477299999999998  5.8456400000000004 11.8339309999999998
 11.2681000000000004  5.5420699999999998 10.1600730000000006
  6.3724299999999996 13.3413000000000004 14.5141510000000000
 14.4106000000000005  6.4603400000000004 11.9477010000000003
  0.9750250000000000  8.5058799999999994 12.3262409999999996
  7.5127100000000002  9.3784799999999997 14.4991009999999996
  1.7312700000000001 10.0747999999999998 10.7879290000000001
  7.3440099999999999  7.0209500000000000 13.9650510000000008
  6.9991500000000002  0.7564419999999999 10.4659540000000000
  0.8898480000000000 14.4254999999999995 11.5023309999999999
  1.3390700000000000  2.2197100000000001 11.6088509999999996
 10.8452999999999999  7.7022399999999998 14.9769009999999998
  3.8002099999999999  2.2871700000000001 11.0438609999999997
 10.8246000000000002 11.5046999999999997 13.6105710000000002
  8.9299900000000001  5.9873500000000002 12.6857509999999998
  2.7101299999999999 11.7036999999999995 12.1202210000000008
  8.1366599999999991 13.3580000000000005 11.2065009999999994
 13.9422999999999995  9.5795700000000004 13.5788010000000003
 12.2682000000000002 12.3457000000000008 15.0524710000000006
  7.1164800000000001  2.4297200000000001 12.0450409999999994
  4.5522700000000000 12.8361999999999998 11.0672010000000007
  5.9681400000000000  5.6881899999999996 10.4916689999999999
 12.8155999999999999 11.8188999999999993 10.6199469999999998
  4.7229599999999996  0.3965950000000000 10.0000000000000000
 12.3632000000000009  4.1176500000000003 14.2502510000000004
 12.1554000000000002  0.0483390000000000 15.2550410000000003
  5.1151799999999996  8.8967799999999997 11.9631109999999996
  0.0453208000000000  6.5333100000000002 15.7223710000000008
  9.7030200000000004  9.7562899999999999 14.5649909999999991
 11.1471999999999998  3.3390800000000000 10.7102909999999998
 12.1144999999999996 10.3003000000000000 12.1678309999999996
  8.8563500000000008  9.9979700000000005 10.7546009999999992
  4.9679399999999996  0.5915450000000000 14.0403509999999994
 13.1149000000000004  8.2973199999999991 15.3912510000000005
  3.0931600000000001 14.2850000000000001 14.8852609999999999
  3.8788200000000002  9.3900100000000002 10.0141749999999998
  1.4658000000000000 13.1417999999999999 13.4795710000000000
  2.5833400000000002  8.1876599999999993 13.8570209999999996
  3.8278400000000001 10.0931999999999995 13.4477110000000000
  8.0049499999999991  3.2877600000000000 15.5588309999999996
  3.4888800000000000  6.1573099999999998 13.2709709999999994
  9.4420300000000008  6.9792100000000001 10.5127210000000009
 11.0792000000000002  8.7786299999999997 10.7975729999999999
  9.8994300000000006 13.5320999999999998 12.8274109999999997
 11.0399999999999991  5.9400599999999999 13.5848410000000008
 10.9116999999999997  2.6136300000000001 12.8561209999999999
  7.7744900000000001  4.5343700000000000 11.2599610000000006
 14.4400999999999993 11.8391000000000002 14.4407110000000003
  5.0577500000000004  2.6002000000000001 12.9364010000000000
 -0.0084863200000000  4.9732700000000003 13.9833110000000005
  8.7587600000000005  2.0664600000000002 13.7530110000000008
  8.4117499999999996 14.3597000000000001 14.4057510000000004
  6.3676000000000004 12.3646999999999991 12.4536010000000008
  1.5345500000000001  3.0292300000000001 13.8242510000000003
  5.4876199999999997  6.7242400000000000 12.4232309999999995
 13.1768999999999998 14.1252999999999993 11.1814710000000002
  7.1308600000000002 10.0132999999999992 12.3815310000000007
 12.1096000000000004  6.8774600000000001 11.8579109999999996
  3.6316799999999998  4.0947399999999998 14.2357510000000005
 11.7330000000000005  0.3733740000000000 12.9231610000000003
  1.6634300000000000  1.3362499999999999 15.4951310000000007
