 H Si 
 1.0000000000000000
    14.5906239619226561    0.0000000000000000    0.0000000000000000
     0.0000000000000000   14.5906239619226561    0.0000000000000000
     0.0000000000000000    0.0000000000000000   10.8325482570918776
 H   Si 
  13  98
Cartesian
  1.8611800000000001  8.0324299999999997  2.4378799999999998
  0.3500940000000000  6.5774400000000002  4.7549400000000004
 10.4601000000000006  8.2462800000000005  0.1305080000000000
  2.7350800000000000  7.8779100000000000  0.2042110000000000
 -0.0118262000000000  9.1200200000000002 10.2834000000000003
 12.0609000000000002 10.2403999999999993  9.1249300000000009
 12.9431999999999992  6.0388099999999998  0.0990519000000000
 13.8348999999999993 12.3893000000000004  0.5808400000000000
 13.9361999999999995 11.1923999999999992  2.8261500000000002
  1.3072200000000000  5.4739500000000003  1.5010300000000001
 12.8704000000000001 10.7196999999999996  4.5284000000000004
  1.4153199999999999  4.4078900000000001  3.5471499999999998
 11.7378999999999998  7.9998800000000001  2.9007000000000001
  6.9913499999999997  6.0787800000000001 10.2140000000000004
  1.6825000000000001  9.2227700000000006  6.4355500000000001
  6.1393000000000004  4.0432300000000003  6.6899100000000002
  3.5156000000000001 10.1141000000000005  5.3297499999999998
  8.3608499999999992 12.6369000000000007  0.1234540000000000
  3.0284599999999999 11.1303000000000001  9.3751400000000000
  7.8801600000000001  9.3821899999999996  1.0693299999999999
  8.6870399999999997  7.1478500000000000  8.9876500000000004
  4.7357800000000001  4.8109900000000003  2.7214999999999998
  1.4328500000000000  4.3998200000000001  0.5144919999999999
 13.5021000000000004 14.2681000000000004  3.5175200000000002
  6.7779999999999996  1.8387400000000000  5.9965599999999997
 14.4405999999999999  7.0010399999999997  7.9258400000000000
  8.0576899999999991 13.1917000000000009  2.2945099999999998
  5.0612599999999999 10.0815999999999999  7.1521699999999999
 12.8867999999999991 11.3385999999999996  5.9398600000000004
 13.8337000000000003  1.9573199999999999  3.3859699999999999
  9.0282099999999996 11.9344999999999999  5.7505300000000004
  8.2479999999999993  0.9184870000000001  1.8461399999999999
 11.2241000000000000  1.4525999999999999 10.3474000000000004
  2.0143800000000001 12.5351999999999997  2.4194900000000001
 13.7545000000000002 13.7090999999999994  5.7028900000000000
  3.1151599999999999  1.7704800000000001  2.5059600000000000
  1.3024700000000000  5.4512900000000002  9.1073699999999995
 10.5932999999999993 10.4283999999999999  6.5745300000000002
 11.9345999999999997  3.0397200000000000  4.5258000000000003
  1.4074500000000001  2.8628700000000000  3.9002100000000000
  5.7734100000000002  0.9169790000000000 10.0698000000000008
 14.2940000000000005 13.3757000000000001  9.8083200000000001
  2.5509100000000000 14.5140999999999991  1.3177600000000000
  2.2738999999999998  1.6396800000000000  9.0933600000000006
 12.0419000000000000 14.0975999999999999  9.2810799999999993
 14.2370000000000001 12.4001000000000001  2.1903500000000000
  8.4787499999999998  7.2612399999999999  6.6009700000000002
 13.9784000000000006  9.0050500000000007  8.9079700000000006
  3.5317099999999999  3.5102099999999998  1.1813400000000001
  5.2978600000000000 11.7235999999999994  8.8301400000000001
  5.2065700000000001  4.7884900000000004  8.8512900000000005
  4.8539800000000000 13.5027000000000008  4.7531200000000000
  5.2311800000000002  0.1645010000000000  6.6364999999999998
 12.6077999999999992  0.5357820000000000  7.2537700000000003
  4.2163899999999996  4.3278900000000000  5.2582000000000004
  7.7418899999999997 10.4120000000000008  4.6521499999999998
 -0.0149984000000000 10.4457000000000004  7.3333800000000000
  6.6032500000000001  8.7450799999999997  5.8034499999999998
  4.3542100000000001  2.6962199999999998  9.8248800000000003
 12.8698999999999995  2.9233899999999999 10.1890999999999998
  9.3475599999999996  8.9243500000000004 10.2804000000000002
  4.9441899999999999  0.5238360000000000  3.1900499999999998
  6.8811700000000000  1.8263000000000000  3.6274999999999999
  8.1702100000000009  4.9919000000000002  6.2853100000000000
  1.6419500000000000 13.4725999999999999  6.2059199999999999
  1.1162600000000000  6.8907999999999996  6.0084200000000001
  3.0647000000000002  0.8269030000000001  6.9766500000000002
  9.3640100000000004 10.3543000000000003  3.0109800000000000
  4.7180900000000001 14.1113000000000000  0.9567280000000000
  3.1685699999999999  9.0012799999999995  8.3317700000000006
  8.6922800000000002  4.7477299999999998  4.0160799999999997
  3.0595599999999998  8.4205199999999998  1.5383700000000000
 10.4078999999999997  8.2125400000000006  3.4412300000000000
  9.4530499999999993  1.9870600000000000  8.9263700000000004
  0.9154120000000000  0.6117680000000000 10.7123000000000008
  6.8859000000000004  3.9713599999999998  2.8061600000000002
  7.6865500000000004  2.0438499999999999 10.6496999999999993
 11.2600999999999996 14.4959000000000007  3.5076900000000002
  4.7552099999999999  7.2383600000000001  2.5290400000000002
 11.8995999999999995  5.0849799999999998 10.4939000000000000
  4.6267899999999997  8.0867100000000001  4.7110700000000003
  5.0545700000000000 11.7126000000000001  1.3971199999999999
 10.2195000000000000  3.2363300000000002  2.9115500000000001
 10.1064000000000007  4.0446999999999997  7.8287899999999997
  8.4250000000000007 13.3408999999999995  7.5906900000000004
  6.8481500000000004  7.2920600000000002  1.4795499999999999
  3.3194599999999999  6.4872100000000001  5.9357100000000003
  7.7620100000000001  4.1826400000000001  0.6138430000000000
  3.4415700000000000  6.4856199999999999  8.3202700000000007
 13.3908000000000005  2.6909500000000000  7.8742200000000002
 10.5510999999999999  1.1770099999999999  1.8015800000000000
  1.1601999999999999 12.2434999999999992  8.3009500000000003
 10.3981999999999992 10.6369000000000007  8.9209899999999998
 12.0234000000000005  4.1882599999999996  6.5563599999999997
  9.9554299999999998 12.8115000000000006  9.4099299999999992
 10.7188999999999997  5.9160100000000000  8.8238400000000006
  6.3458300000000003 12.1372000000000000  3.5187700000000000
  2.4977000000000000  2.7995500000000000  6.1072400000000000
  2.8859699999999999 12.2824000000000009  4.5647500000000001
  1.0085400000000000  3.2903400000000000  7.8795400000000004
  9.8701799999999995 12.5907000000000000  3.6435200000000001
  9.0596999999999994  6.4995900000000004  2.5986699999999998
  8.9146300000000007  0.9265870000000000  6.8365799999999997
  3.0682399999999999 10.8059999999999992  1.0501700000000000
 12.0891999999999999  6.6056200000000000  7.0614299999999997
 14.5433000000000003  2.6233800000000000  0.8789930000000000
  6.7462099999999996 11.1707000000000001 10.6618999999999993
 10.6447000000000003  8.0252499999999998  5.7718400000000001
 11.0760000000000005  1.0257700000000001  5.6603399999999997
 10.1151999999999997  4.7934700000000001  1.1583300000000001
  6.3524700000000003 13.8172999999999995  8.5024099999999994
