 H Si 
 1.0000000000000000
    14.5641956660020888    0.0000000000000000    0.0000000000000000
     0.0000000000000000   14.5641956660020888    0.0000000000000000
     0.0000000000000000    0.0000000000000000    9.2146880541657907
 H   Si 
  30  65
Cartesian
 13.9396000000000004 14.7453000000000003  3.6587999999999998
 11.6979000000000006 13.0554000000000006  2.4116200000000001
 11.6160999999999994  1.0083299999999999  3.4573100000000001
  9.4282000000000004  2.6058599999999998  4.6127000000000002
 12.3675999999999995  0.5001330000000000  1.7215700000000000
 13.3777000000000008  0.3685080000000000  6.2306600000000003
 11.2525999999999993 10.8097999999999992  3.8782999999999999
  7.2566100000000002 14.1676000000000002  1.1948600000000000
  0.3185650000000000  4.0347999999999997  9.2030100000000008
 12.1435999999999993  2.9198400000000002  5.8587400000000001
  9.7763899999999992  0.5966800000000000  1.9935400000000001
 12.6256000000000004  3.5328599999999999  7.9188900000000002
 14.3236000000000008  2.2898600000000000  0.4486070000000000
 12.9392999999999994  2.8747199999999999  7.9049500000000004
  9.4195300000000000  0.5942180000000000  1.4028000000000000
  8.7633100000000006 12.5533999999999999  2.1192600000000001
 11.7735000000000003  1.5762400000000001  3.8667400000000001
  0.4410440000000000 12.7584999999999997  6.1449400000000001
 13.8120999999999992 14.1327999999999996  3.2481800000000001
 14.2058000000000000  2.4162800000000000  5.9590500000000004
 14.4891000000000005 14.4077999999999999  1.1031200000000001
 14.0120000000000005  1.7949100000000000  0.8996350000000000
 -0.2064040000000000  1.9879899999999999  5.3692500000000001
 13.9362999999999992  5.0860700000000003  5.4797500000000001
 11.9146999999999998  3.1890800000000001  5.1691300000000000
  1.6374899999999999  0.2485730000000000  6.0465999999999998
 13.3093000000000004 14.6300000000000008  6.9596600000000004
 10.5505999999999993  3.8017400000000001  1.5573600000000001
 11.1719000000000008 12.9017999999999997  1.8588800000000001
 12.2360000000000007  0.4562030000000000  1.0207999999999999
  3.3984399999999999 10.9578000000000007  6.1035300000000001
  6.7234699999999998  4.0230699999999997  8.2886299999999995
  7.8799799999999998  2.4900099999999998  0.3509190000000000
 14.4397000000000002  9.7928800000000003  7.3181300000000000
  3.1687699999999999 10.6737000000000002  0.2094500000000000
  8.9435099999999998  5.2584900000000001  6.0582000000000003
  4.8705800000000004  4.7286799999999998  0.3692890000000000
  9.2604000000000006  9.3205799999999996  5.7679999999999998
  2.0035699999999999  6.7642199999999999  2.6102400000000001
  4.4147900000000000 11.8911999999999995  4.1282300000000003
  5.4168300000000000  3.3267600000000002  6.5006399999999998
  1.1940500000000001  9.2261699999999998  9.1180099999999999
  8.5949399999999994  6.5355800000000004  2.2142499999999998
 10.1845999999999997  7.1241700000000003  5.7703199999999999
  8.6346500000000006  3.6986200000000000  4.3180500000000004
  2.8472599999999999  8.6999399999999998  5.5745500000000003
  6.4817200000000001 10.3615999999999993  7.9868899999999998
  9.0175900000000002  7.6726799999999997  0.0044861400000000
  6.3112100000000000  7.0912600000000001  5.8031400000000000
 12.5714000000000006  6.2355299999999998  9.2595100000000006
  6.3940799999999998 10.5417000000000005  3.7691300000000001
  4.6269499999999999 11.8405000000000005  7.7853399999999997
  5.5057999999999998  4.8264600000000000  2.7871199999999998
  2.1388799999999999 12.7558000000000007  8.7493300000000005
  6.5551199999999996  6.9108000000000001  3.3053599999999999
  2.7833000000000001  0.5255090000000000  2.5592400000000000
  9.0628100000000007  4.1761999999999997  1.9776400000000001
  6.1018299999999996  0.9666530000000000  3.7155000000000000
  6.8810200000000004  9.3535799999999991  5.7127299999999996
  0.6922600000000000 11.7615999999999996  2.8992000000000000
  0.2029510000000000  5.4197199999999999  8.6343700000000005
  3.2006500000000000  4.6871099999999997  3.3251300000000001
  3.1888100000000001  8.5892800000000005  3.2483900000000001
 10.5884000000000000  7.4561999999999999  3.4479799999999998
  3.0388899999999999  0.6733230000000000  6.2104200000000001
  2.8426900000000002 10.8493999999999993  2.6461399999999999
  4.2125100000000000 14.3536999999999999  4.2799800000000001
 12.2303999999999995  9.6173500000000001  8.1864500000000007
 10.0399999999999991  9.9608299999999996  3.5403899999999999
  4.9364200000000000  9.0226699999999997  0.2177900000000000
  1.1192299999999999 11.6786999999999992  6.8931399999999998
  4.0808499999999999  6.9501600000000003  6.4230700000000001
  0.6519490000000000  5.7479899999999997  6.2113500000000004
  3.9628399999999999 14.0315999999999992  7.9515099999999999
  6.2848499999999996  3.2168000000000001  4.3413599999999999
  2.8535800000000000  4.9495699999999996  5.8162799999999999
  3.1473800000000001  2.8773499999999999  7.0171999999999999
  5.3494799999999998  8.7054700000000000  2.5802200000000002
 10.1302000000000003 10.6422000000000008  7.6184900000000004
  8.4730200000000000 10.0372000000000003  0.0036986600000000
  0.0787149000000000  9.6677900000000001  1.9266799999999999
 14.4415999999999993  7.6115399999999998  3.4271400000000001
 12.4313000000000002  9.3643599999999996  1.4212899999999999
  4.0735999999999999  6.9188700000000001  8.8981600000000007
 12.4768000000000008  7.1827699999999997  2.1375600000000001
  1.7377400000000001  6.9407100000000002  0.3229690000000000
 11.0985999999999994  7.6030800000000003  7.8166200000000003
  1.0657000000000001 13.5854999999999997  1.5865000000000000
  7.6543500000000000  6.1004500000000004  7.8018500000000000
  6.5224299999999999  0.9136649999999999  1.4518100000000000
  4.2942799999999997  0.6039360000000000  0.6813500000000000
  2.1144799999999999  2.8793400000000000  2.4601700000000002
  3.3849499999999999  2.9246300000000001  0.3457430000000000
  0.6616320000000000  8.1033399999999993  5.7261100000000003
  8.4492399999999996 11.0294000000000008  2.2680699999999998
