 H Si 
 1.0000000000000000
    14.5295791732167459    0.0000000000000000    0.0000000000000000
     0.0000000000000000   14.5295791732167459    0.0000000000000000
     0.0000000000000000    0.0000000000000000   11.1733309725737548
 H   Si 
   5  96
Cartesian
 10.1240000000000006 12.3013999999999992  1.8235699999999999
  9.2084100000000007  9.8900299999999994  7.3429300000000000
  6.7520600000000002 10.1097999999999999  1.1462399999999999
  9.7281499999999994 12.7591000000000001  7.4676099999999996
  7.0233100000000004  0.3942920000000000  9.6652799999999992
  3.9285800000000002  4.3811299999999997  9.6152800000000003
  0.7715990000000000  9.5374300000000005  8.6284600000000005
  1.8262200000000000  6.9415399999999998 10.6638999999999999
  9.8305900000000008  7.2536300000000002  2.3157800000000002
  7.4824200000000003  5.1941499999999996  7.7160500000000001
 12.7248999999999999  8.7965000000000000 10.2737999999999996
  8.9931199999999993  1.7735000000000001  4.9375099999999996
  9.9185400000000001  2.3061099999999999  0.8622540000000000
  0.0269593000000000  4.6147700000000000  4.4222099999999998
 13.5137000000000000  3.4071699999999998  0.7592560000000000
 12.4056999999999995  7.5391700000000004  6.9330900000000000
 10.5351999999999997  5.0463399999999998  3.0581499999999999
 13.6227999999999998  3.5145900000000001  6.2491800000000000
 10.5067000000000004  9.0451099999999993  3.9743200000000001
  0.3320330000000000  8.2518499999999992  2.5053500000000000
  1.2114199999999999  2.9675500000000001  1.1457500000000000
  2.3454600000000001  1.3098500000000000 10.9687000000000001
  6.2695299999999996  7.9227800000000004  9.7628699999999995
 11.7150999999999996  0.6118040000000000  7.5725699999999998
 -0.0349158000000000  6.7223199999999999  5.9079499999999996
  2.2475600000000000  0.1366900000000000  7.3519199999999998
 11.2652000000000001  4.1570400000000003  6.6457600000000001
  0.3860830000000000  3.4698400000000000  8.1947500000000009
 10.1015999999999995 14.1809999999999992  4.5410700000000004
  1.3505499999999999 10.1242999999999999 10.8219999999999992
 11.1239000000000008 12.8282000000000007  2.7915700000000001
  7.4339399999999998  4.7402199999999999  5.4554900000000002
  2.0991700000000000  8.5663800000000005  1.0641900000000000
  6.5568299999999997  6.5896900000000000  4.1032299999999999
  8.2594100000000008  7.2799899999999997  8.8524600000000007
 12.3035999999999994 11.3092000000000006  6.3199500000000004
 12.8170000000000002  4.7989600000000001  2.6892800000000001
  7.4606000000000003  6.8281599999999996  1.8610800000000001
  4.4661700000000000  9.0495500000000000  8.5150600000000001
 10.3272999999999993  7.5801800000000004  5.7820200000000002
  8.6486099999999997  8.5187500000000007  7.0017699999999996
  6.5684199999999997  1.7761300000000000  9.1972799999999992
  4.1794799999999999  8.8405900000000006  1.9950300000000001
 13.2226999999999997  0.4689500000000000  9.6419700000000006
  8.9969500000000000  4.0278600000000004 10.8486999999999991
  1.1420600000000001  8.3453700000000008  4.6727499999999997
  2.1905000000000001 14.3622999999999994  4.0724299999999998
  0.9313110000000000  1.2690800000000000  9.0559600000000007
 12.2439999999999998  1.5529700000000000  0.4162110000000000
 14.3945000000000007 12.1720000000000006  6.2578699999999996
  2.1769799999999999  6.3113400000000004  6.8379700000000003
  7.1103199999999998  4.8750600000000004  0.6150870000000001
 11.1651000000000007  7.3438699999999999  0.3585170000000000
  6.0108800000000002  5.5254700000000003  9.8640500000000007
 10.8168000000000006 13.1513000000000009  6.5812499999999998
  5.4332500000000001  1.7402700000000000  3.3809100000000001
  3.5540799999999999  4.9473500000000001  2.3838100000000000
  3.2835899999999998  7.5171700000000001  5.1734600000000004
  2.9054000000000002 12.5380000000000003  8.0641700000000007
 11.8402999999999992  1.1837899999999999  3.9603000000000002
  1.9433300000000000  3.6575400000000000  3.3296199999999998
  1.3065400000000000 10.6701999999999995  5.0938699999999999
  3.4218400000000000 11.1948000000000008  2.3511700000000002
  5.3784400000000003  3.4303599999999999  1.5853600000000001
  6.7375299999999996  2.3470800000000001  5.2560300000000000
  2.5251000000000001  7.8642700000000003  8.5548900000000003
  3.2366100000000002  2.0274999999999999  4.1509200000000002
 10.1016999999999992  6.1170200000000001  9.8162599999999998
  4.4230400000000003  6.9028799999999997  3.3462800000000001
 11.8101000000000003  5.6256599999999999  8.3518899999999991
 12.8310999999999993 14.4939000000000000  2.2130000000000001
  0.5847110000000000 14.3175000000000008  5.7660299999999998
  2.4123600000000001  4.7934000000000001  0.2912880000000000
  3.3064600000000000 11.3788999999999998  5.9709300000000001
  0.7095460000000000 13.7438000000000002  2.5349699999999999
 10.0326000000000004  2.1323400000000001  7.0901300000000003
  8.4401399999999995  3.2013699999999998  8.6313300000000002
 13.2274999999999991  1.2145300000000001  5.8145899999999999
  3.9688099999999999 12.7021999999999995  4.0204700000000004
 13.7151999999999994  4.6612400000000003  9.8488900000000008
  2.6320299999999999  4.1425799999999997  7.6241099999999999
 10.2469999999999999  2.6438000000000001  3.2071900000000002
 14.1377000000000006  6.9134700000000002 10.5228000000000002
  6.2398199999999999  8.6495700000000006  0.7850120000000000
  0.7595600000000000 11.8816000000000006  8.4981799999999996
  3.4432900000000002  2.0477599999999998  6.6334200000000001
 12.8872999999999998  9.4804999999999993  8.0306300000000004
  6.7223400000000000  8.6258199999999992  5.6148300000000004
 14.1508000000000003 12.8773999999999997 10.2565000000000008
 12.1039999999999992 10.7853999999999992  3.8832000000000000
 13.5890000000000004 10.7527000000000008  0.1371000000000000
  9.8146900000000006  5.3392299999999997  5.2508600000000003
  1.0662400000000001 11.5154999999999994  3.0117200000000000
  1.4570799999999999 13.7271999999999998  0.4009240000000000
 13.7957000000000001 10.3606999999999996  2.4589400000000001
  4.4959600000000002  9.2666500000000003  6.1583699999999997
 13.1797000000000004  6.7746500000000003  1.4758400000000000
  4.3435499999999996 11.4581999999999997  9.4179200000000005
  4.7545799999999998  2.3940899999999998 10.6644000000000005
  2.9511400000000001 11.9026999999999994  0.1316260000000000
  5.6619299999999999  1.7835700000000001  7.1999199999999997
