 H Si 
 1.0000000000000000
    14.5733989905969228    0.0000000000000000    0.0000000000000000
     0.0000000000000000   14.5733989905969228    0.0000000000000000
     0.0000000000000000    0.0000000000000000   26.5771002999999979
 H   Si 
  10  73
Cartesian
  9.1224326300000005  6.1900754999999998 14.4110208499999999
  6.7244255199999996 13.3335050899999992 17.1143765399999985
  4.4378944799999998  9.7484565599999993 15.8463413699999993
  7.5964560099999998  9.2340863700000000 16.3041563399999987
  3.6876242700000001 13.5400325899999991 12.1543521000000005
 -0.0106652900000000 12.8942498099999998 16.3610173600000017
  2.3887993700000001 11.8085676399999997 16.1045038799999993
  2.3944966000000001 11.2579844799999993 16.7049228200000002
 10.8425562400000004 12.1188988999999996 15.7813265099999995
  7.4400741300000002  2.8768416100000000 12.3360934800000006
  6.1536185400000001  5.8052777300000002 14.2165529900000003
 13.5174541599999998  2.3190863600000000 13.0843183500000002
 11.2539767299999998  5.7693420499999997 16.3123782099999985
  7.3092332899999999 13.6134197199999996 15.7851713700000005
 14.2957140500000008  1.8180580799999999 15.1936347499999993
 14.5839458900000007  5.8748440000000004 14.9350248600000004
  5.4690749700000003  1.0403630500000001 10.8370113799999999
  1.0646557400000001  5.5249903199999997 12.7600674200000004
  5.8010881000000003 14.3530862999999993 14.2029665800000000
  0.4484503200000000  3.8604729199999999 16.1024412599999991
  8.9131078400000003 14.4235941400000005 11.2069917599999993
 10.4778597199999997  0.3759450800000000 14.3616711299999995
 10.6616726600000007  1.4612874400000000 17.0799176599999996
  4.9410564299999997 10.9851661099999998 12.8664908100000002
 12.2650089599999994  6.5397417799999999 11.7233228599999997
  2.2913248500000001  7.2046216000000003 11.5936632300000007
  9.4529923300000007  9.0149303399999994 12.6518247299999995
 11.7353248000000008  3.7352813500000002 13.8660178599999995
  4.6762884299999996  3.0908952900000002 16.1668463399999993
 12.4328485900000008 13.0287212799999992 10.4373530999999993
  8.6417236800000001 10.6394196200000000 11.1115149100000004
 12.3880755300000001  6.0116603800000004 14.1025523100000001
 13.8788838000000005  8.0878867999999997 15.7648398299999997
  4.3381262800000000 10.0578587400000004 10.8853961800000008
  2.8680334400000000  1.6576429200000000 13.1285670700000008
  2.7016460900000001  4.1525313400000003 15.5859346199999997
  8.2761387000000006  3.3339238400000002 15.3991303500000001
  2.8293889499999998  4.0715585000000001 13.2156407500000004
 13.6593987000000006  8.4547712399999995 11.8989718199999999
 10.5589110099999992  3.5454987999999998 15.9202690800000006
 10.1594484699999992 12.4417894199999992 10.9097816000000005
 13.4966982099999999 12.9528554600000003 13.2305454999999998
 12.7189156200000006  0.3021075400000000 12.0097816399999999
  8.8891810000000007  4.9723589400000003 11.4955867299999994
  8.7059083699999995  0.9985999300000000 15.7481580000000001
 12.3920172999999991  0.5692474600000000 15.7800171099999993
 10.7088461800000001  3.5476331200000000 11.7889977399999992
 11.7829327999999993  8.2809310499999995 14.7498614700000008
  0.8091398400000001  8.5547641100000007 10.2840950400000004
 11.7481062699999992  9.5617301999999995 12.7731024600000005
  2.1937849200000001  3.1100679100000002 10.9613975400000001
  7.3206883899999999 14.9790196600000005  9.5682446100000007
  8.1185349700000007 11.7023571799999999 14.5755146999999994
  4.8888807700000001  4.8702164200000002 12.4601003800000001
  6.4414784500000000  4.5840592200000003 16.2331230200000007
  3.0752770100000002  0.9413147100000000 10.8696214500000004
  7.0970628099999997 11.7282140500000001 12.4692706900000001
  2.0218981100000000 12.8323104899999993 14.5317702200000003
  4.9718353000000004  1.9105711599999999 14.1875674499999995
  8.2359471099999997  4.9689186799999998 13.6918239899999996
  0.3133943600000000  9.1291794799999995 13.9088362799999992
  9.7626543800000007  7.4511781099999999 15.4731246799999997
  2.3157891899999998  6.4037826000000004 15.1448363500000003
  4.4378928200000001  9.3485564700000001 14.4217140500000003
  5.9183460700000001  8.2376729799999993 11.3928095999999996
  4.0503469900000004 12.9875537899999998 13.5018050499999998
  4.4344524300000003  6.4925267000000000 10.8595213600000005
  6.2730353900000004  8.0962457099999998 13.8026852099999999
  5.9555126700000001  2.8116136900000002 12.2727892999999995
 13.2931128600000008 13.0315530299999995 15.5829057899999999
  1.5271476500000001  0.5142778000000000 14.6265860799999992
  6.7925712000000003 14.0389584900000006 12.0749665499999992
  8.1606437300000003  8.4750230900000005 10.3558570999999997
  9.8918804500000004  7.0753529100000003 11.4193832600000000
 12.5629894699999998  4.4818141499999999 10.5963525199999999
  2.0331196600000001 10.1589975100000007 11.4129413399999997
 -0.0000935300000000  3.7829751200000001 11.6180643499999992
 11.5505638200000007 11.8533168500000006 12.7325692999999998
  8.1218744800000007  9.1941260699999994 14.8678388699999999
  2.5000409900000000  8.2551372500000006 13.7236261200000005
 10.5109767400000003  1.2244731499999999 12.1647796699999997
 10.2564362399999993 12.5820675699999995 14.4895117300000003
  0.7507928000000000 11.3667330999999994 13.1853028499999994
