 H Si 
 1.0000000000000000
    14.5538280032082756    0.0000000000000000    0.0000000000000000
     0.0000000000000000   14.5538280032082756    0.0000000000000000
     0.0000000000000000    0.0000000000000000   24.8069619999999986
 H   Si 
   7  52
Cartesian
  9.7527200000000001  3.0225499999999998 10.1773179999999996
 10.9160000000000004 14.2843000000000000 13.8084520000000008
  9.8599999999999994  7.0153900000000000 10.4256580000000003
 11.3148000000000000 12.9008000000000003 12.0773119999999992
 10.3966999999999992 11.4825999999999997 10.2515680000000007
  5.8066000000000004  7.3543000000000003 10.2524379999999997
  2.3633700000000002 12.0876999999999999 12.5841419999999999
  1.9351200000000000  2.5303100000000001 11.9093319999999991
  7.6209100000000003 12.4510000000000005 13.1623319999999993
 11.1609999999999996  8.0175500000000000 14.0304219999999997
  5.0972799999999996 11.8224999999999998 10.7864649999999997
  3.3964099999999999 10.0609999999999999 10.3633299999999995
 13.7530000000000001  2.8422399999999999 13.5838920000000005
  4.2096400000000003  2.5188400000000000 11.7249619999999997
  9.2833199999999998 10.7727000000000004 12.8039620000000003
 11.6433999999999997  4.9181200000000000 11.6535419999999998
 13.9370999999999992 14.0198000000000000 11.2730820000000005
  1.3320000000000001 12.1621000000000006 13.6984820000000003
  7.4318400000000002  8.2806300000000004 12.5098920000000007
  4.6304400000000001 12.7447999999999997 14.6983420000000002
  5.4742899999999999  3.4442400000000002 13.2990119999999994
 11.4368999999999996 11.6271000000000004 12.8458620000000003
  0.0847762000000000 14.0178999999999991 13.4575320000000005
  0.4812790000000000  6.3068000000000000 13.0417819999999995
 10.2973999999999997  0.4177610000000000 12.6636220000000002
  8.5723699999999994 13.7440999999999995 11.5565020000000001
  4.8367699999999996  6.2502800000000001 10.0694239999999997
  7.2795300000000003  6.0268199999999998 12.8554119999999994
 13.4687000000000001  6.5911799999999996 11.3119519999999998
  2.9605299999999999 13.6722000000000001 10.7121650000000006
 12.9901999999999997  3.0551200000000001 11.4439320000000002
  5.2367400000000002  5.6130599999999999 13.8433019999999996
 10.3107000000000006  8.4291900000000002 10.2315740000000002
 12.0873000000000008  0.8210340000000000 11.3043320000000005
 14.0374999999999996 11.8805999999999994 10.4389590000000005
 13.5000000000000000  5.0299600000000000 14.3137519999999991
  1.6422900000000000  8.4703599999999994 13.6886220000000005
  3.3936899999999999  8.5682399999999994 12.0872119999999992
  4.7259099999999998  0.2980270000000000 12.0011220000000005
 13.1715999999999998 10.2949000000000002 11.9648520000000005
  5.3260500000000004  9.1017700000000001 13.0982219999999998
  6.8969399999999998  0.6373410000000000 11.1454819999999994
  4.6481800000000000  0.4796090000000000 14.3292120000000001
  7.7337999999999996  4.7452600000000000 11.0401819999999997
  1.2413300000000000  0.6962390000000001 10.5983129999999992
  5.5053799999999997 11.4321999999999999 12.9548220000000001
 10.0273000000000003  4.1493599999999997 14.8069620000000004
 14.5197000000000003 10.1448999999999998 13.7227619999999995
  1.9182500000000000  4.9333700000000000 11.8728820000000006
  1.0199000000000000  1.4893000000000001 13.8571419999999996
  9.8775499999999994  4.4909800000000004 10.1563900000000000
  8.9967199999999998  9.0144099999999998 14.1664820000000002
  3.8120799999999999  6.2971399999999997 12.1204420000000006
  9.2192000000000007  2.1826400000000001 13.7303920000000002
 11.3241999999999994  5.7200300000000004 13.8035219999999992
 11.9465000000000003  8.3698700000000006 11.9206719999999997
  1.6697700000000000 11.6759000000000004 10.0000000000000000
  8.4969500000000000  9.7873999999999999 10.9227620000000005
  7.4117400000000000  2.7282999999999999 12.1662219999999994
