 H Si 
 1.0000000000000000
    14.5837388557004388    0.0000000000000000    0.0000000000000000
     0.0000000000000000   14.5837388557004388    0.0000000000000000
     0.0000000000000000    0.0000000000000000   27.3099929999999986
 H   Si 
  29  78
Cartesian
 13.5181000000000004  5.6997000000000000 12.6037230000000005
  4.6480899999999998  7.6010499999999999 10.8679830000000006
 13.7723999999999993  5.2456100000000001 16.8653629999999986
  4.7897999999999996  7.1255400000000000 13.2082929999999994
  0.7627820000000000  8.5039499999999997 12.8400330000000000
  3.2296900000000002  5.0922200000000002 16.0176729999999985
  4.0480099999999997  7.9746600000000001 10.9610129999999995
  4.6201299999999996  6.8616000000000001 17.3099929999999986
 13.7029999999999994  4.0939399999999999 14.3100629999999995
  3.6621999999999999  6.0686099999999996 12.0504130000000007
  3.3376700000000001  5.5338300000000000 11.5353630000000003
  1.3813700000000000  4.7759999999999998 13.1598330000000008
 12.5596999999999994  7.4073399999999996 10.5534890000000008
  0.7912080000000000 10.2751000000000001 10.2328349999999997
  1.7376499999999999  7.1960300000000004 14.5117030000000007
 12.6504999999999992  5.2079700000000004 10.5452809999999992
 13.6456999999999997  4.8521299999999998 14.4621630000000003
  0.2868280000000000  6.1532400000000003 13.5038529999999994
  0.9949910000000000  6.4809599999999996 11.1335029999999993
  1.0235099999999999  5.1054700000000004 15.4986429999999995
  2.9748600000000001  8.0680099999999992 12.9549230000000009
  5.0818800000000000  8.6174400000000002 16.6999330000000015
  2.0238600000000000  6.9124200000000000 16.9334130000000016
  4.2367100000000004  4.6219299999999999 12.8980730000000001
  2.0493000000000001  3.7922199999999999 15.5258129999999994
  6.7901199999999999  6.6961800000000000 17.1792429999999996
  3.5676999999999999  7.1186999999999996 15.2636430000000001
  2.0142699999999998  8.6513200000000001 10.8524329999999996
  0.1216190000000000  4.1680000000000001 10.8771529999999998
  0.5970310000000000  6.4360700000000000 14.8837829999999993
  2.0314299999999998  0.5420560000000000 14.7061130000000002
  4.8891299999999998  3.0687500000000001 10.6566969999999994
  8.5173600000000000 13.5198000000000000 14.5086729999999999
  6.4919099999999998 10.8140999999999998 16.1970829999999992
  2.2971900000000001  9.5338399999999996 15.5112430000000003
  1.0910800000000000 12.0945000000000000 13.4748129999999993
 13.5477000000000007  8.4492300000000000 10.2140520000000006
 11.3269000000000002  8.9339099999999991 13.1402730000000005
  5.5876700000000001  8.3358699999999999 13.8145530000000001
 12.2430000000000003  5.3159400000000003 11.9561130000000002
  8.1406799999999997  2.1993499999999999 13.6342230000000004
  4.8613499999999998 14.5137999999999998 12.9327629999999996
  9.5461799999999997  3.9381100000000000 13.7616630000000004
  7.5035699999999999  7.1053499999999996 14.7224229999999991
  8.0885599999999993  5.0244099999999996 10.8586430000000007
  9.3992000000000004  9.6393199999999997 13.9143830000000008
 12.8710000000000004 12.4644999999999992 10.4293920000000000
  3.2082000000000002 13.3033000000000001 15.5305330000000001
  5.1136799999999996  1.7535499999999999 14.4280229999999996
 13.5983999999999998 11.0568000000000008 13.3067329999999995
 13.3801000000000005  7.4626500000000000 15.8432530000000007
  4.9205100000000002 10.6258999999999997 10.9934530000000006
  0.4524360000000000 13.4600000000000009 10.4825610000000005
 13.9929000000000006 12.4268999999999998 16.6241330000000005
  2.0165500000000001  9.0895700000000001 13.3029229999999998
 12.5937999999999999  1.7486800000000000 11.5748329999999999
 12.6388999999999996 10.3399000000000001 11.3107930000000003
  8.5361100000000008 10.2190999999999992 17.1241430000000001
  5.4171500000000004  3.8640500000000002 13.4189129999999999
  2.9126900000000000 11.0571000000000002 12.3303329999999995
 12.4878999999999998 10.6045999999999996 16.7540730000000018
  1.7669500000000000 11.5025999999999993 10.3827949999999998
  1.5871299999999999 11.7228999999999992 15.8432030000000008
  9.8571600000000004  3.9038200000000001 10.0000000000000000
 10.1219999999999999 11.8361999999999998 14.4486229999999995
  9.7305799999999998  8.0131999999999994 10.2517510000000005
  6.3487799999999996  1.5114500000000000 10.1117480000000004
  0.3654530000000000  0.9366880000000000 16.3272230000000000
  7.1794399999999996  1.7034899999999999 15.6666729999999994
  9.6944999999999997 13.9984000000000002 10.8598330000000001
  4.2048800000000002  6.1457600000000001 16.1774130000000014
  4.3844300000000000 12.3670000000000009 13.9416329999999995
  8.6163299999999996  0.2434170000000000 12.6411529999999992
  8.7962600000000002 11.7575000000000003 10.9283230000000007
 14.3925999999999998  1.7969599999999999 13.0249830000000006
  6.1572899999999997  5.1969000000000003 15.1274230000000003
  6.4663500000000003  9.3035899999999998 11.9744130000000002
  1.0689400000000000  7.7188100000000004 10.3488779999999991
  6.5890700000000004 14.3498000000000001 11.5506829999999994
  7.4870599999999996  8.4568899999999996 10.1316150000000000
 12.9197000000000006  9.4234000000000009 14.8221329999999991
  9.1969200000000004  8.3263900000000000 15.8103429999999996
 10.4756999999999998  4.9004700000000003 15.6992729999999998
  4.6127500000000001  9.4980799999999999 15.5882330000000007
  1.0105500000000001 14.4199000000000002 12.6071629999999999
  6.9632800000000001  3.7630800000000000 16.6252229999999983
  6.6482799999999997 12.1234999999999999 14.3708930000000006
  2.7286700000000002  2.3549000000000002 11.3164929999999995
 11.8314000000000004 13.9795999999999996 11.6631929999999997
 10.8869000000000007 13.7547999999999995 16.9910129999999988
  8.6744500000000002  0.1060110000000000 16.6068929999999995
  3.0701900000000002  0.1296520000000000 11.6151929999999997
 10.9679000000000002  3.3649200000000001 11.9480730000000008
  7.8984199999999998 10.9168000000000003 12.8275330000000007
 10.5129000000000001 10.1989000000000001 10.4584050000000008
  1.5900799999999999  3.2671700000000001 13.0671730000000004
 10.6287000000000003  6.9453199999999997 12.2132629999999995
  2.9145500000000002  2.6399900000000001 14.9784229999999994
 13.1730000000000000  1.4943800000000000 15.0273029999999999
 11.1698000000000004  7.1225800000000001 16.4177229999999987
  8.5687099999999994  5.9090800000000003 12.9838229999999992
 11.9991000000000003 12.7569999999999997 13.6148629999999997
 12.5809999999999995 13.9053000000000004 15.4014330000000008
  5.7025600000000001 12.6394000000000002 10.1238159999999997
  6.9954099999999997  3.2972999999999999 11.9618730000000006
 10.3713999999999995 11.5440000000000005 16.7385729999999988
 11.6692999999999998  2.8851900000000001 16.3103330000000000
