 H Si 
 1.0000000000000000
    14.5733989905969228    0.0000000000000000    0.0000000000000000
     0.0000000000000000   14.5733989905969228    0.0000000000000000
     0.0000000000000000    0.0000000000000000   26.0804699999999947
 H   Si 
  17  63
Cartesian
 12.7973098000000007  2.8573316700000002 11.0573839199999995
  7.0014064700000000  2.5488412600000001 12.7465537799999993
  9.8161489599999996 14.5630471200000002 15.7151628100000007
  8.1478856099999994 12.9364642700000001 16.3319972200000016
  7.3719390300000001  4.4751008499999996 16.5179933000000005
  8.7089968500000001  4.2908830800000004 11.8266623600000003
  7.6418405199999997  1.3155880700000000 14.4951668399999996
  7.5273095000000003  1.1511539399999999 12.0282025600000004
  7.9183249199999999  0.6466648900000000 14.6948315800000007
  3.2907987699999999  4.5117100299999997 10.0178499900000002
  9.4057834400000004  1.5990684900000001 12.8484055799999997
  5.5993946599999997  1.2670840100000000 16.1726713699999998
 10.0000749700000000  0.9031689200000000 10.9644898499999996
  9.6463041100000009  0.4271692100000000 10.5155297599999997
  6.8311609000000004 -0.7513874500000000 10.7803313099999993
 10.8909049899999992  4.2296325499999998 10.8610070800000003
 10.4205969199999995  2.6660313000000002 16.5624801099999992
 11.2049986700000002 12.7503918499999997 12.9396767199999996
 12.6830512899999999 11.1283769299999999 12.0837316799999996
 10.4865125799999994  9.5332473899999997 14.5506210100000004
  6.6935383100000001 10.6098984800000000 14.8792060900000003
 -0.0490923300000000  7.6768592499999997 11.9472560800000007
  2.2497237700000001  1.8294819600000001 11.5278876199999996
  4.8362031700000001  4.7964928200000001 12.8090706000000001
  7.5011035599999998 11.1895707899999994 12.7236544400000007
  2.6195112200000001  1.7711353999999999 15.2500274299999994
  2.9788963700000002  4.1846055099999999 11.4321377399999999
 13.1904805799999991 12.0261456899999999 15.8865925400000005
  8.3345220999999992  8.5507734800000001 14.5423892699999993
  2.4214160400000000 10.2602969999999996 11.8969746599999997
  5.7833338799999998  8.4890097299999994 11.4314493699999993
  6.2506372800000003  6.2196402700000002 11.5616081299999998
  8.8879799399999992  6.2235326899999999 14.3019862599999996
 12.0200984099999992  7.7458042100000002 14.8118720499999998
  1.8504203200000000 14.1933124799999995 15.9600986599999999
  3.9693743399999999  5.3883012099999998 14.9460778800000007
  3.8748476900000002 11.9856869400000008 11.2838073500000000
  3.8954794700000002  8.6930843699999993 12.7763377800000004
  1.5987287400000001 11.3264775199999992 13.8297258599999999
 13.9655448999999994 10.7454930399999995 14.1025054500000007
 11.0326616499999997 11.7970862600000004 15.1340081899999994
 13.8698272199999995 11.2633398699999994 10.1019569100000002
  0.5783983200000000  0.9269999500000000 10.0011181300000001
  1.2627531700000001 13.4165555699999999 12.8761901800000000
  7.9184424099999999  4.2579707899999999 15.1579854399999991
 11.0804697799999996  5.5300555999999998 14.9659488599999992
  0.3707315400000000  4.3666678799999996 13.8249359399999996
  2.7463891800000000  7.1041281500000002 14.0425489700000004
  5.1757891200000001 14.2584639600000003 13.5123481499999993
  2.8175748999999999 12.0869760900000003 15.6932936099999996
  9.2239161500000009 13.2476418700000007 15.3715501700000008
  3.3184349200000001 14.2300446600000008 12.0921870400000007
 10.2936597100000000  6.8983368399999998 11.0131247200000004
 14.1379528699999995 14.1513813800000001 16.2477130800000005
 11.1827510799999992  9.3692543700000002 12.2896404700000001
 12.2257247000000007  0.2730412800000000 12.9278861200000001
  8.4972916299999994  5.7506217299999998 12.0460181599999991
  1.5735119300000000  8.4707562000000003 15.5329927199999993
 12.6922110600000000  5.0384151800000003 13.3637613799999997
  1.4838646499999999  5.8666578300000003 12.4096907099999996
  4.9528677700000001  1.5760821000000000 14.8644512599999992
  7.9211208099999997  8.9681623399999992 12.2890513499999994
 10.7202873800000003  2.0763048500000001 13.3422140099999993
 14.2146500899999992  8.4125552300000006 14.2591072699999994
  8.8480312199999993 13.0382139000000006 13.0549564100000008
  4.9674763300000002 10.7096469200000008 13.2212369200000008
  4.9697004199999997 12.3409436600000006 14.8879837399999992
 10.1137897999999993  3.3271592499999998 15.2766247899999996
 11.7568946600000004  3.5518647200000002 11.8571785999999992
  2.0583095899999999  4.0692266600000000 15.5110574499999991
 12.2622885799999999  7.1684388900000000 12.3327846999999995
 14.2910690200000001  0.2470838100000000 14.0371527100000009
  1.0474433400000001  2.1174925199999999 13.5126882699999999
  5.9402924300000004 10.9107189299999998 10.9382036399999993
  0.6702823500000000  9.4771009700000004 10.6561107400000008
  7.1118886999999997 14.3103590300000008 12.1463354399999997
 14.7272395199999995 13.3131818899999992 10.7794785999999991
  6.2491752500000004  3.2489225199999998 13.8176971000000002
 13.0070897199999997  0.3442481900000000 10.6622373400000008
  9.5622123200000004  9.0709368999999995 10.6628695699999998
