 H Si 
 1.0000000000000000
    14.5261084410637018    0.0000000000000000    0.0000000000000000
     0.0000000000000000   14.5261084410637018    0.0000000000000000
     0.0000000000000000    0.0000000000000000   28.6666859999999986
 H   Si 
   4  92
Cartesian
  9.8689199999999992 12.8786000000000005 12.4802459999999993
  5.1113299999999997 12.1692999999999998 13.5839859999999994
  5.7809600000000003 12.1547000000000001 13.7760160000000003
  3.7143000000000002  3.9746299999999999 12.7177159999999994
  7.0043800000000003  3.7473299999999998 14.3707860000000007
  4.0221799999999996  0.7091480000000000 17.9361159999999984
 13.1729000000000003 13.3310999999999993 18.0138059999999989
  2.1688000000000001  8.9069900000000004 16.3760060000000003
  8.2872400000000006  2.3315700000000001 17.8401859999999992
  7.1394700000000002 10.4353999999999996 18.0146860000000011
  5.5291800000000002  8.7709100000000007 13.2420860000000005
  1.8969100000000001  7.2431299999999998 14.8165560000000003
  3.9879300000000000 12.1128000000000000 16.5315960000000004
  7.0096900000000000  9.2661899999999999 11.5215759999999996
 10.8719999999999999  8.9238400000000002 17.5881760000000007
 13.7187999999999999  9.3335399999999993 10.0135729999999992
  0.3133500000000000  8.7372800000000002 17.8826560000000008
  5.2793000000000001  6.5330300000000001 13.4591460000000005
 10.0778999999999996  4.6201100000000004 12.4457760000000004
  8.8725400000000008  6.5124899999999997 12.6135059999999992
  4.2393299999999998  8.6630599999999998 17.1433159999999987
  3.5657899999999998 11.7242999999999995 11.3073160000000001
  1.0665899999999999  0.1912890000000000 10.8981259999999995
 14.1327999999999996 11.0427000000000000 13.1385959999999997
  0.7760490000000000  3.5506500000000001 15.6929960000000008
  4.3034699999999999  2.8239299999999998 17.1532160000000005
  9.3632100000000005  1.4292199999999999 10.6332740000000001
  1.2478800000000001 12.4572000000000003 14.0976160000000004
  8.6287199999999995  2.4599299999999999 15.4030360000000002
 14.2126000000000001  0.5974990000000000 17.1578960000000009
 12.8824000000000005  2.7959700000000001 11.9815159999999992
  3.4914900000000002  9.8806600000000007 13.0939160000000001
  9.9172600000000006  6.7115099999999996 17.7274659999999997
  5.7273800000000001  5.4985200000000001 11.3154760000000003
  0.3553360000000000  6.4653400000000003 18.1464759999999998
 12.0495000000000001 12.4827999999999992 15.9857060000000004
  7.3520200000000004  5.9364499999999998 14.4543759999999999
  2.4745900000000001 13.4137000000000004 12.3207660000000008
 11.6264000000000003  0.8855750000000000 10.9907160000000008
 11.8773999999999997 10.8704000000000001 10.0000000000000000
 12.6851000000000003 10.7248999999999999 14.7708960000000005
 10.5319000000000003  8.2402499999999996 12.5932359999999992
  6.7262000000000004  3.4956700000000001 11.7903559999999992
 12.8915000000000006  6.7601500000000003 15.1912459999999996
  7.9897299999999998  0.2241760000000000 12.1424059999999994
  3.2465500000000000 14.3407000000000000 16.1153160000000000
 12.5960000000000001 12.0298999999999996 11.8159060000000000
  9.5174500000000002  9.9300300000000004 15.8483959999999993
  5.5480600000000004  9.6048899999999993 15.4642160000000004
 12.6532000000000000  7.2315899999999997 12.9431060000000002
 13.9778000000000002 13.1908999999999992 10.3352480000000000
 11.9795999999999996  4.2205700000000004 17.9758659999999999
  9.3326799999999999 13.3598999999999997 18.6057459999999999
  3.6393399999999998  5.3377299999999996 10.1052560000000007
  7.6054599999999999  0.0211931000000000 17.8031560000000013
 12.3032000000000004  2.0471499999999998 14.4023459999999996
 11.1806000000000001 13.6000999999999994 12.5047060000000005
 12.9520000000000000  8.9052100000000003 16.2894460000000016
  5.0879399999999997  0.2023620000000000 14.8035060000000005
  3.3274300000000001  3.6038700000000001 14.1899759999999997
 13.2914999999999992  2.6159100000000000 16.5868560000000009
  7.8316100000000004  6.6279500000000002 16.6250059999999991
  6.2443200000000001 11.6593000000000000 16.2103460000000013
 10.0462000000000007  9.5285100000000007 10.6024790000000007
  5.2277500000000003  2.6013500000000001 15.0403260000000003
  2.1097700000000001  3.4443600000000001 17.6771260000000012
  8.6878499999999992 10.7605000000000004 12.0497859999999992
  6.3138300000000003  3.3650600000000002 18.4082560000000015
  1.9154300000000000  8.0550400000000000 12.4912060000000000
  5.7679200000000002 11.9896999999999991 10.4922559999999994
  7.5272300000000003  6.9685100000000002 10.7170769999999997
 14.2667000000000002  8.8268400000000007 12.1369659999999993
 10.4817999999999998 10.3393999999999995 13.7326359999999994
  2.4213100000000001  7.2805499999999999 10.3437900000000003
  5.9144899999999998  1.4506300000000001 11.6508360000000000
  2.0384799999999998  3.5626400000000000 10.0048940000000002
  2.3494400000000000  5.4982400000000000 18.6666859999999986
 10.5450999999999997  3.6615799999999998 14.6478560000000009
  1.1313599999999999  0.1138730000000000 15.1704960000000000
  8.7390500000000007  3.5340500000000001 10.7527349999999995
 11.2611000000000008 14.4842999999999993 14.6497759999999992
  6.2867100000000002  5.7794400000000001 18.2114760000000011
  4.1774399999999998  0.4939170000000000 12.6900960000000005
  3.6933400000000001  5.7957500000000000 15.0794759999999997
 12.1614000000000004  5.0602900000000002 11.7553359999999998
  2.6116199999999998 10.8968000000000007 15.1361460000000001
  7.5432600000000001  8.9341600000000003 16.3787260000000003
  0.6053350000000000  2.4359799999999998 11.5393760000000007
  4.1371500000000001  6.2654100000000001 17.2417659999999984
  9.9760500000000008 12.0033999999999992 16.7933559999999993
  0.3856170000000000  5.8699599999999998 15.7351559999999999
  1.5361800000000001  2.3539800000000000 13.7451360000000005
  7.8479599999999996 12.8088999999999995 11.0365959999999994
  7.3247400000000003 13.6828000000000003 15.6576459999999997
 11.2414000000000005  5.5019099999999996 16.2337160000000011
  8.7427899999999994  0.3399290000000000 14.3769460000000002
