 H Si 
 1.0000000000000000
    14.5917708480618131    0.0000000000000000    0.0000000000000000
     0.0000000000000000   14.5917708480618131    0.0000000000000000
     0.0000000000000000    0.0000000000000000   28.5703999999999994
 H   Si 
  61  85
Cartesian
  0.7149534100000000  2.4840420399999998 18.5215956499999983
  9.6769134000000001  5.8323214300000004 15.0711470399999996
  5.1902385700000000  3.3604817300000001 18.8405903600000002
 14.0075926299999995  6.4975959200000002 14.9171898100000000
  5.5554229299999998  2.4516524400000002  8.5981936500000007
  1.1446177700000000  1.7043890300000000 11.7185623200000002
 10.6656655499999999  2.4169378300000002 12.2306715799999992
 13.1625355600000002  2.2788417100000000 18.4416455600000013
 14.0635462899999997  0.4554205000000000 19.8473358900000001
  0.8380662100000000  3.2795061099999998 18.4904801499999998
  3.9340932700000000  4.5025445800000004  9.5700973800000000
  4.3654174399999999  5.7028559799999998 14.9064472299999995
  4.4595667700000003  3.2623016800000002 16.1033651400000011
  0.5153134700000001  3.5169528500000000 10.3058218299999993
  4.5331644300000002  3.0529355499999999 18.6720644299999989
  4.3185104000000001  5.6250884699999997 15.6542285400000001
  2.6394768300000000  2.0815712600000000 17.0865438500000018
  4.9327699000000003  2.6462732500000001 11.5745675499999994
 12.6252410800000003  2.8019510500000000 18.4593822900000006
 11.4155413400000008  5.0568501599999998 13.1802816099999998
 11.9356113300000004 13.0921844499999995 15.6696776599999996
  5.8704194200000002  4.0534127299999998 13.7001895900000008
  8.9801933599999995  2.9080082400000000 11.1703984100000007
  8.3961083300000006  7.6408199500000000 14.4566102099999991
  0.4679424700000000  1.7788788099999999 12.0198814499999997
 10.3290525399999993  4.2551176300000000 10.8396112999999996
  7.8421484200000000  5.2652507100000001 13.0531935899999993
  6.2347587100000004  2.0472667300000000 13.4096940799999995
  8.3085077900000002  4.2454374200000000 15.1022564999999993
 -0.2187134500000000  3.4587862600000001 10.4001177600000005
  2.8460515900000001  2.2309801899999999 13.0446054900000004
 14.5574044600000008  0.8771464600000000 14.1450856100000006
  5.9526320899999998  0.6112600700000000 18.8748467899999994
 12.7766477799999993  2.8000121199999999 15.9531280500000001
 13.7201801999999997 14.3839381500000005 11.6550130999999997
  5.5259631999999996  8.9943175800000006 17.9658314300000015
 12.4532524299999992  1.0355977400000000 15.8811177800000003
 10.4999591999999993  3.4934741699999998 14.6408796399999996
  9.6890481699999995  0.4845471900000000 12.8723654700000001
 11.4493750100000007  0.0859671500000000 14.0543686799999996
  6.6395944599999996  3.7506125600000000 16.9446784900000011
  0.9942686100000000  3.7769756100000000 13.2764176700000007
 11.7527024400000002  0.7468736100000000 13.7973036400000009
 14.6063694399999999  4.3018577499999999 15.8431393200000006
  5.8725073099999996  1.4791797799999999 16.6240484799999990
 11.8374206700000002  0.6899131900000000 16.2036291699999992
  8.1244223899999994  2.3477064900000002 18.1155402899999984
  3.2962558700000000  1.5855865700000000 10.0993765100000008
  8.6317949600000006  2.0606259800000002 14.2984519999999993
  6.7861192199999998  5.5728059999999999 15.3330919399999992
  6.8019127499999996  4.4649384300000001  8.9698385700000003
 10.9632026200000006  4.6326489200000003 10.7340050500000004
  0.4454137200000000  2.2173250400000000 15.8319071400000002
  4.5796839800000004  3.2953171000000001 11.6894222800000005
  3.3191925699999998  1.3295585599999999 14.9474515900000000
  0.6403484400000000  1.8363233100000000 16.4395861799999992
  2.3640908899999999  3.8620805599999999 11.3036206099999994
  2.2593917000000001  3.5958661799999998 15.2708658600000007
  7.7471062999999996  7.2623341600000000 14.4686242800000002
  9.6398790800000000  6.1191282600000001 12.3621217399999992
  3.3482013500000001  4.5556339499999998 13.4175438299999996
  9.4321612199999993  2.4522959800000002 17.4152662199999995
 10.3538961000000000  4.4359543400000003 18.2642829700000000
  5.7008640200000000  0.2661421900000000 17.4582348799999991
 11.4477133700000007 10.3948653400000008 14.6688824400000009
  4.4775112699999999  8.2456645500000008 17.2092680400000013
 10.6836824299999993  9.3899415699999995 18.4804321800000011
  2.9176891299999999 -0.1004276300000000 15.0495866800000009
  1.2434308999999999  6.7718246500000001 17.3401640099999987
  4.1215076699999997 11.6420698300000005 16.8668242900000003
  1.3799423600000000 12.3059401299999998 17.9549099699999992
  3.1897939200000001  0.3207819600000000 10.8854003000000006
  6.3222651299999999 12.3395831499999993 10.5984675700000004
  6.9165811599999998  2.9880052400000001  8.8619346900000000
  3.0482824000000002  3.3793677199999999 16.5196817399999993
  7.9786987199999997  1.9594329600000000 10.6093767200000002
  6.7729929300000000  1.0900653100000000 12.4159543499999998
 12.9892022699999998 10.4321244100000001 16.4359129199999998
  0.2334394600000000 10.6749798800000004 15.0525446400000007
  2.9180477499999999  9.7806597899999996 14.3314311900000000
  9.7913477199999992 11.4779012100000006 18.1164520799999984
 13.0363942200000000  9.5399654999999992 11.2267216399999992
 11.2932776300000004  8.1555416399999991 14.1503109100000000
  7.9335337399999997  9.8023100200000002 16.4130601399999989
  6.5462169399999999  5.3730747000000001 13.7549141200000005
 11.1174259200000005 14.3070296799999994 10.2240269099999992
 13.0126674399999995  0.8691069800000000 10.8690151999999998
 13.6095262600000009  6.9285915700000000 18.0619737700000016
  4.3852721600000004 13.2731138200000007 13.6927655900000005
  3.0759393799999999  9.0923971300000002 10.4788770099999997
  4.9389436199999999 10.4786050199999998 11.2406082699999992
 10.7698008099999996 10.2162151399999992 10.2745242300000008
  0.8459532200000000  6.9043845800000003 15.0281585999999994
  5.6685449200000004 12.0336237900000000 15.1659747199999995
  8.4733221099999998 14.3315645000000007 13.2827273199999993
  0.5852387600000000 14.2281993199999999 14.7028014799999998
  8.9568228100000002  0.0729455500000000  9.6360002500000004
  8.9939616299999994  9.1885966000000003 11.6314014799999992
  0.8676232800000000  9.7487301300000002 11.2669288699999992
  2.7664003300000002  5.1812387600000003 10.2218039500000000
 12.0391220299999997  5.5663636399999996 17.0408771399999992
  6.5710387199999998  8.9882773199999999 12.1161801499999999
 10.1591416399999996 14.8507885399999999 17.1405605100000002
 10.6599502099999999 12.3279255400000007 11.2886231699999993
 12.3451660099999998  7.2659542799999999 10.7799809599999996
 11.0912340599999997 13.3197782700000005 18.6520555200000011
 10.3685253599999996  7.3930517199999999 12.1471935900000005
  1.5471943699999999 13.5687043599999999  9.9881740299999997
  5.2295056999999998 14.1108591499999996 11.6847029100000004
  8.5303368699999993 10.6637551399999992 13.3761932100000003
  9.1946975900000005  3.0871898999999998 15.1865595500000001
 13.9166942799999998  5.9762871600000000 11.9820229099999995
  3.4037313800000000 11.4137688599999993 12.7653965500000002
 13.1634243000000009  4.1804231200000004 15.5418103599999995
  8.3491132500000003 12.4579697899999999 11.8985970600000002
  8.5514381499999992  5.9424361599999997 18.2702364999999993
  9.5446063500000005 11.3422604200000006 15.5457993099999996
 14.5370226700000007 13.7983471400000006 16.9163442800000006
 12.9367343600000009  9.0952216600000000 18.3211055499999986
  5.3026957899999996  7.1639174199999998 12.9780109299999999
  1.3890881900000001 11.9716349700000002 11.7017469199999997
  2.3911366100000002 -0.6210585100000000 19.2551701199999989
  6.7214714600000001  5.2248633099999999 17.0790684199999987
  2.3389111699999998  8.7225060400000007 17.9703075800000001
  4.7672075899999999  8.5014310500000008 14.8438678500000005
  2.0951733400000001 10.5072852999999995 16.5256401100000012
 12.1215895499999995  2.2622521099999999 12.5005269200000004
  2.3916364699999999  3.6031709699999999 12.8414130699999998
 14.4736090700000002 12.3691813499999999 13.4554880099999998
  0.8213976900000000  8.9140790800000005 13.5947157599999997
  9.2202428699999999  8.0097849500000002 17.3371431499999993
  1.4295050300000001  6.6377683500000000 12.7724793800000000
  7.4512636199999998 11.3146067499999994 18.1723443300000014
  4.6834550200000002  6.0377120800000004 17.7127178699999988
 12.3472131500000000 11.4045922599999994 12.7219895399999992
  2.6553300700000002  5.0304040700000003 18.1090500100000007
 12.5600178699999994 12.6646957199999992 16.9620541699999983
  8.9307066400000004 13.6500081899999994 15.5070346499999996
  7.0315544499999998 13.1167998000000008 16.6976241899999991
 10.5215503100000003  6.8025001800000000 15.8195308000000008
 13.2941511299999995  7.9808820400000000 13.0418348500000008
 12.7478434400000005  4.3823334200000001 13.2388799600000002
  3.3928392700000001  7.0271749899999998 11.5480050399999996
  3.5805866800000001 -0.7165259800000000 17.2457294099999991
  6.5431449600000002  9.9834764600000003 14.5001117399999995
 15.0288161500000008  0.5612738700000000 18.7238485099999998
