 H Si 
 1.0000000000000000
    14.5676482755316030    0.0000000000000000    0.0000000000000000
     0.0000000000000000   14.5676482755316030    0.0000000000000000
     0.0000000000000000    0.0000000000000000   10.1620684186551422
 H   Si 
  36  76
Cartesian
  1.6677200000000001 12.5373999999999999  7.6885500000000002
  5.0314199999999998 11.4435000000000002  0.9663650000000000
  0.3752810000000000 10.6485000000000003  6.6543099999999997
 14.0915999999999997  8.0717300000000005  2.1842999999999999
  2.3873099999999998 12.2949000000000002  1.6302600000000000
 14.4030000000000005  6.2482100000000003  4.1593999999999998
 13.9201999999999995  7.0446900000000001  9.5057700000000001
 13.8926999999999996  8.0085499999999996  5.9894800000000004
 14.0251000000000001  8.7599000000000000  5.9257900000000001
  1.3899300000000001  9.1760300000000008  4.4755599999999998
  3.1332700000000000 10.5244999999999997  8.0955100000000009
 12.6761999999999997  6.0088900000000001  0.4746360000000000
  2.7909099999999998  6.1751399999999999  8.7502099999999992
 12.1059000000000001  9.9164700000000003  3.3428300000000002
  0.5595980000000000 11.1231000000000009  7.1916700000000002
  0.2815000000000000 13.0351999999999997  8.6311099999999996
  1.1003099999999999 11.6221999999999994  9.7225199999999994
 14.2873000000000001  6.4093999999999998  9.4446899999999996
  4.5260999999999996  8.8203700000000005  8.8789099999999994
  2.9085999999999999  8.7488899999999994  2.2708100000000000
  1.6639299999999999 11.2525999999999993  9.3564900000000009
 13.5364000000000004  8.5658600000000007  2.1693799999999999
 13.9970999999999997 11.4189000000000007  3.9521099999999998
  3.2377300000000000  8.2331099999999999  4.9808899999999996
  2.2909600000000001  8.7459699999999998  2.5270400000000000
  2.3042300000000000 12.5571000000000002  7.2474299999999996
 13.2360000000000007  9.1084599999999991 -0.0016384100000000
 13.8817000000000004  6.4414100000000003  7.2830700000000004
  2.7925000000000000 10.0622000000000007  7.5738300000000001
 12.7504000000000008 12.8844999999999992  2.5906899999999999
 13.4847999999999999 10.9270999999999994  3.9122499999999998
 13.1039999999999992  9.4110800000000001  9.4558000000000000
  3.0232999999999999  8.5717999999999996  9.6891300000000005
  0.8836150000000000  8.6961399999999998  4.1341299999999999
 11.6561000000000003 11.2914999999999992  1.4885299999999999
  2.9770799999999999  8.6640899999999998  0.2449460000000000
  5.3127100000000000  0.9979310000000000  8.0821699999999996
 11.7898999999999994  4.9440200000000001  3.1823100000000002
  7.8653899999999997 11.5756999999999994  8.5707599999999999
  9.5281699999999994  6.1719700000000000  6.7479500000000003
  4.5821699999999996  6.3110099999999996  2.7761399999999998
  9.5217600000000004  2.2411500000000002  9.4210100000000008
  6.3643500000000000  2.7047800000000000  3.9281999999999999
  5.3913500000000001  4.3051300000000001  9.0491299999999999
 11.0891000000000002 10.3765999999999998  2.4420600000000001
  8.0798500000000004  5.6695099999999998  3.0929000000000002
  9.8995499999999996  8.3573000000000004  9.5125600000000006
 11.8621999999999996  0.7874820000000000  6.3141800000000003
  7.8902599999999996  1.8822300000000001  0.9723200000000000
  2.0043700000000002  3.3539200000000000  8.1789500000000004
  8.3857599999999994  3.2643599999999999  2.8564200000000000
  9.0160699999999991 14.4506999999999994  1.3131699999999999
  8.6644500000000004 14.4572000000000003  6.2600600000000002
  7.3080299999999996 10.8377999999999997  3.0497100000000001
 10.0042000000000009 11.4094999999999995  7.4489200000000002
 10.4964999999999993  0.2318460000000000  9.7408999999999999
  6.2448300000000003  7.8669900000000004  6.0082399999999998
  6.5674700000000001  6.8926900000000000  1.6622399999999999
  3.3354400000000002  1.5319700000000001  5.3515499999999996
  2.1778200000000001  2.6068799999999999  0.0941894000000000
 11.4629999999999992  9.6603499999999993  7.7740299999999998
 13.4870999999999999  5.0065700000000000  6.8354900000000001
  5.7771900000000000  1.0131200000000000  0.3823440000000000
  3.4871699999999999  5.1308800000000003  7.8973199999999997
 10.2646999999999995  4.4151100000000003  9.6579800000000002
  6.3352800000000000 13.9695000000000000  6.5324499999999999
  0.8509120000000000  3.5212500000000002  3.8950000000000000
  0.4235440000000000  2.6434899999999999  1.6895700000000000
 13.3716000000000008  2.7177300000000000  0.1357290000000000
  6.0461200000000002 11.6676000000000002  6.9132999999999996
  4.2896599999999996  7.2981199999999999  4.8343800000000003
  7.4944499999999996  5.9167600000000000  5.3356199999999996
  5.8295300000000001  8.1854700000000005  8.4446200000000005
 10.4273000000000007  6.8591100000000003  3.4632600000000000
 13.0943000000000005 14.3107000000000006  2.2733300000000001
 10.6229999999999993 13.7751999999999999  7.4525499999999996
  5.4004399999999997  0.5907210000000001  4.5872099999999998
  3.8598499999999998  5.2957200000000002  5.6173299999999999
  4.4469900000000004  3.0295100000000001  0.5674330000000000
  5.9184099999999997  4.1553800000000001  5.6837499999999999
 11.2416999999999998  4.8250099999999998  7.5826300000000000
  9.9594600000000000  8.3806799999999999  1.6298999999999999
 14.2934000000000001  3.1817899999999999  8.0627300000000002
  2.6508600000000002 13.8618000000000006  1.5164800000000001
 14.4764999999999997 14.5004000000000008  8.8310099999999991
  7.6661599999999996 12.8861000000000008  0.4616510000000000
  4.9151699999999998  4.0490399999999998  2.6453300000000000
  1.9743599999999999  0.2930990000000000  9.6183700000000005
 10.5099000000000000  8.0958400000000008  5.6340199999999996
  0.8030270000000000  0.4465570000000000  2.6535199999999999
  5.9578400000000000 12.2019000000000002  1.8106100000000001
  7.6295500000000001  8.9495500000000003  1.6344600000000000
  7.7318600000000002  9.3346199999999993  9.3900199999999998
  8.9237599999999997  6.3022900000000002  9.1157299999999992
 12.1966999999999999  4.6743800000000002  0.8912030000000000
  9.1956100000000003 10.1605000000000008  5.5985600000000000
 12.7655999999999992  0.5038400000000000  0.0873466000000000
 10.5165000000000006  2.9781399999999998  3.9296600000000002
 13.7117000000000004  4.9616600000000002  4.5728400000000002
  8.5504800000000003  1.9058700000000000  7.1466700000000003
  1.0738799999999999  1.2968599999999999  4.7528100000000002
 11.4136000000000006  0.6333760000000001  3.8926799999999999
  3.0166400000000002  1.2861600000000000  7.7510899999999996
 14.1734000000000009  0.9954510000000000  6.7713299999999998
  3.1395599999999999  3.6863899999999998  4.2785000000000002
  9.4508399999999995 13.9646000000000008  3.8395600000000001
  9.4775600000000004 11.5276999999999994  3.6412100000000001
  6.5953900000000001  6.2909899999999999  9.5824599999999993
 10.6670999999999996  2.8387799999999999  6.3097500000000002
  4.9806200000000000 14.2815999999999992  2.2186100000000000
  6.9017499999999998 10.1336999999999993  5.2787400000000000
  6.4613500000000004  2.8833199999999999  7.4983199999999997
