 H Si 
 1.0000000000000000
    14.5284224467457541    0.0000000000000000    0.0000000000000000
     0.0000000000000000   14.5284224467457541    0.0000000000000000
     0.0000000000000000    0.0000000000000000   27.5700806000000007
 H   Si 
   4  78
Cartesian
  7.7291214500000001  9.4278436100000000 17.3231934000000010
  7.1458528599999998  1.1367974300000001 13.5772662900000007
  6.6148379600000000  8.5731798000000001 10.9400243600000007
 13.0961295100000008  1.2621709900000000 12.7240861499999998
  1.1966255299999999  4.2351687599999996 14.1698585000000001
 12.6939981599999996 13.2491573200000001 16.6303413300000003
 10.5639985299999992 12.6180862099999995 17.4180682100000013
  0.6498196500000000  0.3693057300000000 14.7366543599999993
  8.8817080199999996 11.8066285200000003 11.5402756100000001
  5.9885516100000000  5.5181236100000000 11.7035212699999995
 -0.1117290200000000 12.8997056499999996 11.3509365599999992
 12.0441052899999992 13.3054706700000001 14.4000192800000004
  2.2199893600000000  1.6688811200000000 11.5309992799999996
  2.7417962000000000 11.3353964699999992 13.6476353400000008
  3.6132716999999999 10.3955928100000001 10.7653134000000001
  8.7472645300000007  2.7745495000000000 10.1570792200000000
  9.3352302700000003 13.9892619800000002 12.2104110299999995
 13.4968420200000008  4.0294661200000004 14.7152400100000005
  1.5949856800000000 12.7785579899999995 15.1742904099999993
 12.2887519899999997  3.9191631600000001 11.0056380300000001
  7.7838358599999999  1.2093023899999999 12.1841238999999995
 11.9020495200000003  7.4785135599999997 10.6644853600000005
  7.3236122999999997  7.0848253000000003 10.4958928799999995
  8.2424938599999997  9.7885778600000002 15.9778073799999998
 12.4412383400000000  2.7977883100000001 12.9897863099999995
  4.3292033900000000  1.7668738799999999 14.0744653100000008
 12.3606039400000007  9.6585753000000008 11.0658006499999999
 10.4514178799999993 10.2131250300000005 12.2973773699999995
 13.5475510499999992  0.8530522500000000 16.3591872999999985
  6.0482377800000000  0.4253248600000000 10.8797526300000005
 13.2034309899999993  5.9006942400000000 11.8097733500000004
  2.1745366700000002  3.9138627800000001 10.7190843299999994
  5.4528758799999997 13.3080235899999995 12.4200791000000006
 10.0340865099999998  4.4628843199999997 11.1609242099999992
  6.8678644799999997 11.4343885299999997 12.6075369199999994
  4.5400138700000001  1.9552121300000000 11.7064096299999996
  2.0044780800000002  2.0486584400000001 13.8538091800000007
  8.8182565700000008  3.2670683600000001 12.7592783799999996
 10.4678115399999996 10.5761695699999994 16.2063663300000016
 10.4910469899999992  3.3467218600000002 16.2343091900000012
 12.9576370099999991  6.2744857200000004 14.1350765299999992
  4.0897207099999999  8.6319044399999996 15.6793650299999996
  8.7311076799999991  1.9631100300000000 16.7757312499999998
  5.5643371799999999  6.8077024899999996 16.5063894699999985
 10.1562864699999995  0.0527173900000000 14.2870613599999992
 14.3316756299999994 10.6041364500000004 12.0046823400000005
  6.7772669700000003 11.2975470199999997 14.9700533199999999
 10.4653525900000002  2.3500768000000001 14.1136850900000006
 13.6855358299999992 14.2292392200000002 13.0624922300000001
  7.5851097599999999  5.9935991099999999 15.3874984700000006
  1.0030132199999999  5.4595004600000001 12.0958526600000003
  1.9111918900000000  7.5852309000000000 15.1669266500000006
  3.4073032400000001 12.5299251199999997 11.7348636000000006
  7.1091033399999999 13.5045998600000008 15.3907405700000002
 11.9980266499999999  8.6724742399999997 16.3635449699999995
 12.7825292200000007  3.0037994299999999 16.6988058899999992
 10.3087967299999992  1.1509275400000001 10.9265771899999997
  4.4815689799999996  4.0245309699999998 10.7370310399999997
  1.8248152000000000 13.9835433299999998 10.8381538299999995
  5.0272645699999998 14.1457670600000007 14.6346222400000006
  1.9463353900000000  9.5996412200000005 12.1813173999999993
  9.0701831599999991 14.2047720399999999 16.3163689199999986
  2.2047021999999998  7.3373288700000003 12.8267927499999992
 -0.1560920000000000 11.6278946100000002 16.1174471699999984
  2.1135772600000000  5.3938629100000002 15.9614659000000003
  9.6206241499999994  6.7681609399999996 11.1612844599999992
  5.4882546600000000  8.3714845300000000 13.7724016700000007
  5.5566239599999996  9.6635455700000001 11.8424484900000007
 11.4803959100000004 11.0641057600000003 14.1657549300000003
  9.7225066899999995  5.5602448100000004 16.1083206600000004
  7.7372211699999998  8.1017591000000007 14.4353629600000009
  3.6903299399999998 12.9377457099999997 16.1522800999999987
  9.6515811599999992  8.0956255000000006 13.1010333699999997
  4.3837399599999998  6.4839723200000003 13.0771426999999996
 13.6815070100000007 10.3163093999999997 14.2780434300000003
  6.9254031999999999  3.3003327400000000 16.9443536500000000
 14.0760928900000000  8.1570594399999994 15.0963913600000001
  7.0490130600000001  4.5196524100000000 13.5969536099999999
  5.5740524699999998  3.4339963299999998 15.0462300199999994
 10.9466004800000007  7.1372997900000001 14.8977636100000002
  4.2762301000000003  5.3601364499999997 15.1959133800000004
  4.4372818399999998 10.9029460000000000 15.3009495999999992
