 H Si 
 1.0000000000000000
    14.5630444323130614    0.0000000000000000    0.0000000000000000
     0.0000000000000000   14.5630444323130614    0.0000000000000000
     0.0000000000000000    0.0000000000000000   27.5334320000000012
 H   Si 
  27  79
Cartesian
  0.8736311300000000 14.2235402299999993 15.2211461299999993
 12.8995284399999992 12.3215761500000003 13.3551939399999995
 14.5295011699999996 15.2053302699999993 17.1889277599999986
  3.7946147300000002 13.3164060800000001 14.2748076800000003
 12.8599516400000002 14.1114203400000005 12.8209641399999992
  5.0487747699999996  1.1614398500000001 15.3711199199999999
  2.6035945200000001 11.2219446600000001 18.0743247099999991
 12.0352418900000000 12.4066493999999992 15.9400590199999996
  2.6221167599999999 13.8485743299999999 17.3735971599999992
 13.8514906700000004 10.4765695399999998 15.6217128299999999
  2.8986650900000002  1.0782875100000000 14.2849621700000000
  3.0824411299999999 11.4151393900000002 14.2348974500000001
  5.2073502500000002 12.8606168499999995 16.1180124099999986
 13.6557541600000008 12.7793521299999995 16.9025406099999991
 12.9444842599999994 12.6150152599999998 16.5117855200000001
  1.3314771200000000 11.9846515399999998 15.8337074599999994
  3.9350711899999999 14.0483514799999991 14.2512560900000000
  0.2478730500000000 13.4229432800000001 13.3919779800000001
  2.8588337799999999 13.1815139499999994 17.5989300499999999
 10.6403006900000001 11.7605221899999997 13.7879714300000007
  4.9151375799999997 10.8379143399999993 18.2246244100000006
  3.9826762499999999  2.3849680800000002 18.3159075300000005
  8.4134939499999994 10.2065282199999992 17.1867437599999988
  3.8612471199999998 10.0095944499999998 15.3685819000000006
  2.2222905599999998  1.1200992999999999 16.5465920000000004
  1.1749470200000001 11.2586723899999992 15.8712099400000000
 12.7470235299999999  0.0491954600000000 15.2462031600000003
  5.4881802799999999  5.7631350699999997 13.4071643999999992
  7.3396821599999997 11.9128612300000007 13.8251087199999994
  7.5632764200000002 11.8098638099999995 10.0571395199999998
  0.2499828600000000  2.7350984500000002 14.7078375900000005
  6.0686867600000003  3.8245796400000001 16.4049782200000003
 12.7545965100000007  2.2728515499999999 11.5022436500000005
 12.5933340900000008  5.4127890599999997 13.2795154199999992
 11.8901412600000000  8.1381124400000004 15.9807521300000008
 12.8846404099999994  6.1271877500000000 15.5418763799999997
  0.2849533900000000  3.7375486300000000 16.7833369200000000
  6.8934211000000003  9.5145667199999995 13.4965651599999994
  6.3815374699999996 12.7332690599999996 11.8435644799999995
  0.2363397000000000  8.2960083400000002 13.6497488100000002
  5.3472623900000000  4.2652418499999998 11.5203166100000001
  8.9355075700000004  5.6569163199999997 14.9072237899999998
 10.7634103900000007  3.3062134799999998 10.8868556800000000
  0.4069212300000000  9.7466685399999999 10.2484182700000002
  2.3041710900000001  4.8329194099999997 17.1264591400000015
  8.8060918200000007  6.0906168500000000 12.6187164099999993
  9.4274777000000007 13.0008332000000006 13.5217905900000002
  3.3776265599999999  7.8523490899999997 11.9440789600000006
  6.7760697700000003  6.1818025700000003 11.4971949000000002
  6.6793242499999996 12.8266583900000004 15.8996820299999992
  7.9030173100000001  2.5839571800000001 17.2240834400000011
  1.3965194100000000  6.9339347199999999 17.6797555899999992
  6.4373945800000003  8.2745036100000000 15.5326336900000008
  9.9464861599999992  8.9118454099999997 11.1054612499999994
  6.8724974300000001  2.2744106199999998 10.5990040299999997
 10.8340730000000001  5.4941129499999999 11.6645487299999999
  6.2389027199999996  1.9879746700000001 14.8941551499999996
  9.7314827600000005  7.8610546200000000 15.3588073900000008
  8.9560592499999991  8.3946124999999991 13.1508333499999992
 11.6407665500000004  0.6095461599999999 16.0842282099999991
  3.7440654499999999 13.8902928100000000 10.3110522699999994
 11.8091380000000008 10.2559987400000008 11.1544119300000002
  3.6942168099999999  7.0638053400000000 14.0765366699999994
  5.2499607599999996  9.3135561100000004 11.6405741500000008
  9.6138598200000001  0.1365663400000000 15.0628598100000008
  3.2829901100000001  8.1787242300000003 17.8410539300000011
  1.1518528500000000 13.1531567299999992 12.2570706400000002
 13.0818384600000002 13.3815580599999997  9.6886947400000007
  1.8302731200000000  3.7760742399999998 13.3723604599999994
 12.0643843200000003 11.1097225099999992 13.2834548199999993
  1.6528338100000000  9.4075864399999993 12.1839068600000004
  5.7007938300000003  0.3296416800000000 11.1896694700000001
  0.8591402900000000  0.8993195700000000 16.0371232799999994
  9.4139662400000006  3.5042012200000001 15.6070074800000000
  4.1884232399999997  8.6190776699999994 15.7837220499999997
  4.2224891700000002  3.7408575700000002 17.7731788000000002
  6.6892995300000004  5.8589047100000000 15.3689093299999993
  5.3156445300000001  2.1128694299999999 12.7083239500000005
 13.1237483800000003  9.5826265599999996 14.6752879299999996
  3.6020366600000000 10.2656145199999997 18.6490792200000008
  1.9254680200000001  0.6324007900000000 11.3398557100000001
  7.9790349100000002  9.5915880300000005 10.1497488100000002
  1.2142197200000000  4.7447707399999999 11.3591709699999992
  9.0100328699999999  1.9544528299999999 11.6989033899999999
 11.2313708299999995  7.2304625500000004 10.1169850399999994
  4.4160550499999998 11.6228262699999991 11.3483563600000004
 11.4975714399999998 11.7452706800000009  9.3665347600000004
 11.6286177800000008  2.8931810200000001 15.7355669599999999
 13.2086296999999995  8.2838598000000001 10.7821485399999997
  8.2170778500000008  8.7696234499999992 16.8688122999999983
  9.9173275699999994 14.2760726699999996 11.5836498100000007
  7.6088535600000000 14.9547019999999993 16.1824029600000010
  6.3326395000000000  8.0193878299999994 10.0233203500000005
  9.5574765500000005 12.7860985899999999  9.8775308000000006
  3.0354557899999999  1.8398182400000000 13.0235375799999993
  8.5951728299999992  1.9999275200000000 14.0377227900000001
 14.2546093200000001  6.5631976500000002 12.0994064699999999
  3.3762908100000000  5.6025586299999999 10.9697575000000001
  0.5485807400000000  6.8681430299999997 15.4651692900000004
 12.2644874099999992  0.0189982600000000 11.5391964599999994
  2.6426388500000000 11.4473903900000007 12.8264565600000005
 14.9754142600000009  2.5403902500000002 10.6664981900000004
  0.0156251200000000 11.9928152000000008 10.6185175699999998
  2.2890827599999999  5.4433658999999999 14.8917658500000005
 12.7836198999999997  3.1170469199999999 13.6836763599999998
 12.6963716400000006  4.4184818200000002 17.1444460700000008
