 H Si 
 1.0000000000000000
    14.5607414187346631    0.0000000000000000    0.0000000000000000
     0.0000000000000000   14.5607414187346631    0.0000000000000000
     0.0000000000000000    0.0000000000000000   27.0179612000000020
 H   Si 
  24  69
Cartesian
  9.1411196500000003 13.4662845299999994 16.0710686799999998
  7.6101538299999998 12.0666270499999992 14.8797057499999994
  7.8039747999999998 12.9628965399999991 12.4929904300000008
  4.2963239399999997  3.2784660900000002 17.4242647200000000
  6.8954338000000002 13.4588871300000008 16.6955009300000015
  5.0750632600000003 13.1170854499999994 13.8934888500000007
  6.3697433600000002 10.9479448700000006 13.4178864900000008
  4.2630612299999999  9.8831511800000005 13.7322042199999999
  6.5239532400000000  7.9618349300000002 11.1045311099999999
  5.6339382999999996  7.3617449099999996 13.8836333599999993
  5.2112151400000002  7.6106746899999997 16.4116608900000003
  8.1351108300000003  9.9695786399999999 12.0286066100000006
  5.6470617799999996 13.2772117000000005 14.3939143000000005
  4.4569022399999998 12.0350717899999999 16.0849043700000003
  3.6000248699999999  8.3330587800000000 14.6543519700000004
  7.1221563899999998 10.3850957200000007 16.3371101500000009
  7.5267481900000002  9.0698947499999996 14.0887683300000006
  4.1297405200000004 10.1564691099999997 16.5099966599999988
  5.7137230900000002  8.1470029600000000 16.2964512699999986
  8.7663265599999995  8.3479819899999992 16.0093191300000015
  3.9053224499999999 12.4818790499999999 15.8716895400000002
  3.7564429499999998  9.6387691800000006 16.1307767999999996
  6.8078674399999999  9.7134212400000006 16.2719596200000005
  4.8850579600000001  0.1699099500000000 15.6182903500000005
 10.8990735300000008  8.6902762700000000 11.4482368700000006
 10.7279166900000007  0.3901758000000000 11.9151860099999993
  1.0851992399999999  2.1849452800000000 13.5244572099999996
 13.5325753800000008 13.4359509799999994 13.9347799200000004
  0.6351105700000000  6.2662513000000004 11.3769830299999999
  5.4665247199999998  9.3356791500000007 10.8299915099999993
  8.2826206800000008  4.3748254800000002 16.9344570800000014
 14.3477383399999994  1.5663468899999999 16.0000521400000011
  8.9176047599999997  9.7726937800000009 10.7650248899999994
  9.3208403000000004 11.9317165500000009 10.0523262500000001
  4.1423873499999999 12.5924826200000002 12.1076011999999995
 10.8963509900000002 12.5994990799999993 11.6576295699999992
  2.8277738800000001  5.3261675899999998 13.9772677900000009
 12.0651406300000001  6.1503972200000003 15.4818472499999995
  6.1722082299999999  1.0640835399999999 12.1910631600000006
  4.9539941399999998  4.4181255999999998 14.3880686699999991
  4.6044581700000000  2.3779188599999999 13.2749318200000008
  9.4195183700000005  1.7202943100000001 13.3785470600000007
 12.7792468499999998  0.8321355100000000 12.9180847100000005
  0.0193379300000000  9.9295813600000002 12.7247217500000005
  8.1643527200000001  1.1474241800000000 10.8147168600000008
  8.5872267099999995  6.0946781100000003 13.8386290100000000
 13.1001376399999998  5.3209597400000002 11.8530708100000002
  4.2545385199999997  6.0162253000000003 10.6760873400000005
  1.0371536699999999  3.2709074199999999 16.9710487900000011
  7.4770440300000001  0.7103011299999999 14.1279862299999994
  2.3772142199999999  7.5714122599999998 14.3177996899999993
  3.4963898699999998  8.1526079800000009 10.8142586699999992
  1.8116792600000000  0.7935464400000000 10.6294856099999997
 10.6302460399999994  9.2644408200000008 13.6920397200000004
  5.9282530099999997  3.9621411599999998 16.4872349699999994
  3.1289877399999999  2.3152134200000001 16.9892654400000005
 11.9915076299999992 12.3596689800000004 15.2144528000000001
  2.0580416700000002 13.5884318499999992 12.2235287699999997
 14.4053267100000006  1.7240121399999999 11.5585429800000004
  2.7546434400000002  2.5526140000000002 11.8856947000000002
 13.3285240700000003  4.6734152199999999 14.1814162600000007
  3.8502387900000001  1.1173212100000001 15.1471766999999993
  1.9455467700000000  0.1116645100000000 14.3205543700000000
 10.3956103399999993  2.7209905999999999 15.2530098100000000
 13.2196477199999993  3.4177449100000001 10.5022258700000002
 -0.6520131400000000 11.6421545500000008 16.2739970700000001
  1.5949864000000000  8.2364415399999995 12.1940474000000005
  0.9960455100000000  4.1564488900000001 14.8091246000000005
  5.1037112699999998 10.5880739899999998 12.7374190100000000
  7.7758547000000000 13.3906463599999999 15.5052538900000005
  0.3431502400000000 13.8347581700000006 15.7753974699999997
 11.1142448399999996  6.4190319300000001 11.0710540599999998
 10.2071782100000004  0.7022181900000000  9.5327769700000005
  9.9728298100000004  5.0346689400000004 15.3591609299999998
  6.2802998399999996  6.0685200799999999 13.5129111900000005
  7.2373234399999999  2.1613518599999999 15.9452942100000001
 12.1935176199999997  8.4179178300000004 15.1254210499999999
  7.6962756199999998 13.2651950599999999 11.0222677099999995
  8.7157226100000003  8.3070163200000007 14.5295347800000005
  9.1688433600000003  3.2304826699999998 11.6019856299999997
 12.9731541099999994 12.1931900199999994 10.6487482900000003
 12.6297059399999991  2.4311076500000000 14.6644073899999992
  8.9748037200000006  5.5725971699999999 11.5989255599999996
  6.5694842199999997  6.2631636000000004 11.2063675200000006
  5.4656093500000003 13.8864863100000004 10.7768993599999998
 14.2184467899999998  9.5417475799999991 15.0857389600000005
  9.1794854699999995  2.1857581800000001 17.2026158199999983
 11.1098558900000004  2.5540700699999999 10.5388360799999994
  0.7962282100000000  7.7101517599999996 16.0234117599999983
 10.4584675300000001 11.5708582199999999 13.7468386700000007
  0.1332039600000000 12.2428564000000009 12.2650988900000009
  2.4942111400000000  4.8612758700000001 11.6749944800000005
 12.8129355100000009  9.9760660100000003 11.2033418299999994
