 H Si 
 1.0000000000000000
    14.5237936979055426    0.0000000000000000    0.0000000000000000
     0.0000000000000000   14.5237936979055426    0.0000000000000000
     0.0000000000000000    0.0000000000000000   10.6638715013436141
 H   Si 
   2  91
Cartesian
  5.7256700000000000 13.0634999999999994  1.4419200000000001
  4.9341799999999996 10.1351999999999993  4.6867599999999996
  7.4251899999999997  1.1674700000000000  0.8503620000000000
  0.1800290000000000  2.4590299999999998  4.8728300000000004
  1.6791700000000001 14.1740999999999993  5.8032000000000004
  8.9432399999999994 14.3796999999999997  5.9627200000000000
 14.3407000000000000  1.1248300000000000  0.6499090000000000
  1.9096700000000000  4.4849699999999997  0.5609390000000000
 11.8675999999999995 13.9902999999999995  2.4632999999999998
 14.5656999999999996  2.9980799999999999  6.9666399999999999
 13.1053999999999995 12.4896999999999991  9.5059600000000000
  5.5038400000000003  5.5661300000000002  3.5479900000000000
  6.1414299999999997  5.9805200000000003  7.0613999999999999
 11.0718999999999994  6.6782700000000004  7.2902800000000001
  1.7830900000000001  2.3950200000000001  1.2614099999999999
  9.3052399999999995 12.1216000000000008  8.3897099999999991
 14.1075999999999997 13.8481000000000005  2.1379600000000001
  8.3283799999999992  9.9824199999999994  0.7844050000000000
  4.2061299999999999  4.5113799999999999  7.3965199999999998
  2.1642299999999999  2.9466999999999999  3.6481599999999998
  3.8635500000000000  4.5439600000000002  9.9027300000000000
 10.6446000000000005 12.1098999999999997  1.4646800000000000
  5.3324400000000001  7.9450500000000002  0.1969320000000000
 12.0236999999999998  1.1758299999999999  8.3235600000000005
 10.3798999999999992  7.0931699999999998  5.1674300000000004
 12.0047999999999995 11.7669999999999995  5.6930199999999997
  0.5514250000000001  5.3718199999999996  7.2003000000000004
  9.8384999999999998  9.0394400000000008  3.9443199999999998
 13.0916999999999994  3.5884999999999998  3.7212800000000001
  2.9487399999999999  5.1897099999999998  3.8752800000000001
  9.6936599999999995 12.1675000000000004  5.9589800000000004
  2.6360000000000001  5.7942700000000000  6.2458799999999997
  7.7855400000000001  1.2415000000000000  4.4607500000000000
 13.4807000000000006  5.8894500000000001  3.0192899999999998
  6.2460500000000003  9.4401700000000002  4.8212500000000000
 11.1262000000000008  3.3108000000000000  5.2037699999999996
  3.3627899999999999  7.8779199999999996  7.1025999999999998
  1.0961399999999999 11.8251000000000008  6.4808000000000003
  5.7804099999999998  5.5905399999999998 10.5589999999999993
  6.3287599999999999  7.7249600000000003  2.8449300000000002
  0.4994410000000000  5.4066099999999997  9.6322700000000001
  3.4353899999999999  7.4259500000000003  9.6347600000000000
  7.7472399999999997 13.7997999999999994  7.8870600000000000
 12.1547999999999998 13.8449000000000009  4.8117599999999996
  6.7946299999999997  4.8341900000000004  5.2389999999999999
  1.8460399999999999  9.7181200000000008  6.9900799999999998
 13.4603999999999999 11.1340000000000003  7.4138900000000003
  8.7857099999999999 10.0076000000000001  9.0888000000000009
 14.2608999999999995  8.9917300000000004  7.9146799999999997
 12.6102000000000007  7.3878899999999996  4.5274700000000001
  3.6114000000000002  2.1775600000000002 10.5832999999999995
  3.6104500000000002  1.2154199999999999  4.5903299999999998
  7.4699499999999999  5.3110600000000003  8.8687000000000005
 12.1097000000000001  9.7245799999999996  3.9121700000000001
  5.5960400000000003  0.6982050000000000  3.4016199999999999
 11.0592000000000006  1.4536400000000000  1.3844900000000000
  1.3704000000000001  7.5069499999999998  0.2296250000000000
  6.9934900000000004 13.6476000000000006  1.9829399999999999
 13.4175000000000004  7.1779799999999998  6.7393700000000001
  4.5183299999999997  2.1673600000000000  6.6003499999999997
 10.6264000000000003  4.2940600000000000  7.2665300000000004
  8.2476599999999998 10.8416999999999994  4.4310900000000002
 13.9695999999999998  0.1412340000000000  9.1885300000000001
 12.1380999999999997 10.3625000000000007  1.7378800000000001
  8.7099399999999996  7.1798799999999998  9.5975000000000001
  8.1901799999999998  1.2389100000000000  9.3078400000000006
 12.1228999999999996  8.4038199999999996  0.1944110000000000
  1.4539899999999999  6.1567200000000000  2.2143999999999999
 12.9475999999999996  2.8978400000000000  1.4432400000000001
 11.0344999999999995  0.9428260000000001  6.0346299999999999
  6.9215600000000004  2.7042700000000002  6.1239299999999997
 10.6145999999999994  8.4264399999999995  8.9902099999999994
  8.4481099999999998  3.4177499999999998  7.9788199999999998
 13.0190999999999999  4.5281200000000004 10.4253000000000000
  8.7135499999999997  7.9958600000000004  2.1974800000000001
 10.8091000000000008 12.8053000000000008  9.9615299999999998
  9.0125100000000007  2.0868300000000000  2.4887999999999999
  9.1279800000000009  5.0679900000000000  4.5595400000000001
  9.5894100000000009  6.0865799999999997  1.0044800000000000
 14.0134000000000007 11.4674999999999994  0.7434110000000000
  1.2325600000000001  0.9953000000000000  7.8277799999999997
  6.2366799999999998  4.2730100000000002  1.8110800000000000
  6.7966899999999999  8.6730900000000002  9.2656899999999993
 12.5023000000000000  3.3428000000000000  8.4311299999999996
 10.4542999999999999  0.4876720000000000  9.9412800000000008
 14.2361000000000004 -0.0119321000000000  4.3926299999999996
  8.4327000000000005 11.9540000000000006  2.4396200000000001
 14.2879000000000005  9.1770700000000005 10.2365999999999993
  5.6773300000000004  8.2789000000000001  6.9299600000000003
  5.3864500000000000  1.9864200000000001  1.5508400000000000
  8.5557599999999994  4.3904899999999998  2.2528000000000001
  3.4807299999999999  0.8884600000000000  8.5361600000000006
 11.8656000000000006  6.2239899999999997  1.1120000000000001
