 H Si 
 1.0000000000000000
    14.5284224467457541    0.0000000000000000    0.0000000000000000
     0.0000000000000000   14.5284224467457541    0.0000000000000000
     0.0000000000000000    0.0000000000000000    9.7630841794315195
 H   Si 
   4  78
Cartesian
  4.7567100000000000  9.1071799999999996  0.7981250000000000
  0.0785722000000000 10.3673999999999999  8.2733000000000008
  3.8777900000000001  6.9784499999999996  2.6369699999999998
  3.1747299999999998  4.1580599999999999  4.6476300000000004
  5.5538900000000000 13.7378999999999998  2.7900399999999999
  7.1066900000000004  7.2380100000000001  8.3622899999999998
  1.8357200000000000  0.5996080000000000  2.5702400000000001
  6.3265300000000000  3.8603800000000001  0.5202360000000000
  8.5855999999999995  0.9411830000000000 -0.0023306400000000
  9.9229599999999998  8.3680299999999992  1.3698999999999999
 12.4488000000000003  1.6123000000000001  4.4207400000000003
  6.8636400000000002 11.2032000000000007  9.5782500000000006
  8.9356000000000009 12.6700999999999997  2.5907800000000001
 14.4156999999999993 13.1441999999999997  0.0596827000000000
  8.6856399999999994  3.8323200000000002  7.1022100000000004
  6.0816699999999999 10.0587999999999997  3.4705599999999999
  9.5468100000000007  9.0035100000000003  3.6980900000000001
 13.7818000000000005 11.6364000000000001  8.1023599999999991
  2.9329999999999998 13.1146999999999991  6.9828900000000003
  1.4640700000000000  0.7123740000000000  4.8529499999999999
 11.9699000000000009  2.7486000000000002  8.2858000000000001
 10.4940999999999995 13.1207999999999991  8.9449199999999998
 13.9878999999999998  4.1939700000000002  1.7956600000000000
  8.4137400000000007  7.3960900000000001  5.0423999999999998
  6.3112300000000001 14.2591999999999999  6.9349600000000002
  8.2138799999999996 10.9093999999999998  3.9530200000000000
 12.0180000000000007  4.6800800000000002  6.9640700000000004
 13.5772999999999993 12.4042999999999992  5.9202500000000002
  8.3939000000000004 11.4337000000000000  6.2448199999999998
  5.6435899999999997  8.4563500000000005  7.0415900000000002
  1.7016300000000000 13.0368999999999993  1.4667300000000001
 10.7457999999999991 10.4019999999999992  0.8171880000000000
  5.5091799999999997  2.4684699999999999  3.8916700000000000
 12.1448000000000000 13.6020000000000003  1.1600500000000000
  5.4714299999999998  3.9317700000000002  6.5781499999999999
  9.7352399999999992  2.0574200000000000  8.0543200000000006
  5.4991300000000001  1.6236200000000001  6.1169900000000004
  6.5574800000000000 10.4819999999999993  7.3802700000000003
  4.9543600000000003 12.2833000000000006  6.4022300000000003
  7.7763299999999997 14.2996999999999996  3.7636699999999998
  8.7502399999999998  5.5627500000000003  3.5340500000000001
  7.6411600000000002  7.6727299999999996  0.8865980000000000
 13.6150000000000002  1.2988000000000000  7.5876599999999996
 10.2659000000000002  9.8568899999999999  6.8520099999999999
  8.2641100000000005  2.8020600000000000  1.2820199999999999
  5.4883199999999999 13.0324000000000009  0.4329640000000000
  2.2540600000000000 11.7030999999999992  3.3779100000000000
  9.3249700000000004  7.6568100000000001  7.1647900000000000
  1.2312600000000000 12.8963999999999999  5.2623699999999998
  8.3276000000000003 13.7728999999999999  6.0962600000000000
 10.0820000000000007  4.5321600000000002  0.7127180000000000
 14.3940999999999999  2.2756699999999999  5.5315300000000001
  4.2834300000000001  1.2423700000000000  2.4170900000000000
 12.5013000000000005 14.4232999999999993  6.1113299999999997
 11.4598999999999993 10.9877000000000002  8.4330099999999995
 11.1944999999999997 12.0588999999999995  2.5836500000000000
 10.6306999999999992  6.2232599999999998  2.2307899999999998
 12.4693000000000005  5.1256500000000003  3.3466100000000001
  7.7119000000000000  2.1533400000000000  3.5862400000000001
 11.4822000000000006  9.1977300000000000  4.9335500000000003
  3.2864399999999998 13.1677999999999997  9.4376300000000004
 11.3393999999999995  3.6873399999999998  4.9401299999999999
  6.0609000000000002  8.1487800000000004  4.7747700000000002
  9.0089299999999994 11.9617000000000004  0.3521960000000000
 12.1476000000000006  3.2932800000000002  0.7933910000000000
  0.2993260000000000  1.8659100000000000  1.6329100000000001
  9.0513899999999996  3.5854599999999999  4.7268400000000002
  6.9213300000000002  5.8633600000000001  2.0793599999999999
  4.6116099999999998  4.5455300000000003  4.4537300000000002
 10.2859999999999996 14.4928000000000008  6.9176900000000003
  3.3140299999999998  0.8701310000000000  6.2620399999999998
 12.5043000000000006  1.3331599999999999  2.0321699999999998
  6.8145199999999999  4.8683800000000002  8.1810899999999993
 10.1024999999999991  5.4868699999999997  8.1099899999999998
  4.8308600000000004  2.0062899999999999  0.2331070000000000
  6.4352000000000000  0.3601630000000000  9.1645099999999999
  0.4465180000000000  0.7638890000000000  9.1905999999999999
  5.0577399999999999  6.4809099999999997  3.4505100000000000
  2.8474400000000002  1.0732500000000000  8.6983300000000003
  4.5295300000000003 11.8810000000000002  3.9409200000000002
 12.2711000000000006 11.2650000000000006  4.4916799999999997
  6.1381100000000002  9.5036900000000006  1.2009200000000000
