 H Si 
 1.0000000000000000
    14.5249511617058591    0.0000000000000000    0.0000000000000000
     0.0000000000000000   14.5249511617058591    0.0000000000000000
     0.0000000000000000    0.0000000000000000   26.4639439000000003
 H   Si 
   3  68
Cartesian
  3.1611199999999999 10.9999000000000002 14.7446538999999994
  0.3595190000000000  1.6801699999999999 11.7618238999999996
  4.6010600000000004  1.9338599999999999 10.7931408999999991
  3.5828400000000000  1.8309400000000000 11.8876638999999997
  2.5771600000000001 12.2829999999999995 15.0907339000000000
  1.1279699999999999  8.9246099999999995 13.5218138999999997
 14.0249000000000006  5.2479199999999997 12.3264838999999995
  0.0368767000000000 10.9008000000000003 12.8307839000000001
  3.4022100000000002  8.6401000000000003 13.0261939000000009
  3.9962599999999999 14.2428000000000008 12.6942239000000008
  1.1959100000000000  5.8050100000000002 15.2607038999999993
  7.4754399999999999 12.2522000000000002 12.7894339000000006
  6.9294500000000001  1.6769400000000001 13.1055539000000003
  3.8563299999999998  6.4736099999999999 12.1973339000000003
  0.9353170000000000  4.6071299999999997 10.5910188999999999
 14.2431000000000001  4.1147700000000000 14.3087438999999996
  6.1237399999999997  6.4552600000000000 11.8418838999999991
 10.0634999999999994 12.7177000000000007 15.0299838999999995
  5.0104300000000004  8.3966700000000003 14.7438638999999991
  1.1536000000000000  2.1123799999999999 14.5982339000000003
  9.0442699999999991  1.4448200000000000 14.0019839000000008
  7.4560100000000000  2.9742899999999999 11.3529239000000004
 13.1234999999999999 14.2829999999999995 10.3492189000000003
  8.5311199999999996  5.1886799999999997 14.2580039000000003
 12.2912999999999997  8.2781599999999997 12.9827639000000001
 10.2634000000000007  7.8561199999999998 11.9894239000000002
  9.7233300000000007  9.5595700000000008 10.3442928999999992
 14.0328999999999997 14.0286000000000008 16.3049838999999999
  1.0573600000000001 12.9342000000000006 13.3285639000000007
  0.4169430000000000  8.0778800000000004 15.5026139000000001
  6.9114699999999996  8.3819999999999997 13.0741539000000007
 12.0075000000000003  4.8732600000000001 11.1880039000000000
  1.4477500000000001  2.4051900000000002 10.9732038999999997
  0.2184950000000000  8.6426400000000001 10.0000000000000000
  4.3320400000000001 13.7917000000000005 14.9454738999999996
  4.7459400000000000  6.2289399999999997 15.6488738999999999
 11.5944000000000003  2.5666000000000002 11.3441139000000000
 12.3280999999999992 10.5977999999999994 13.1513238999999995
  6.5199100000000003  4.7232700000000003 15.4900839000000001
  9.3543299999999991 13.1204000000000001 11.6746438999999995
  3.3831300000000000  2.9979200000000001 13.8887438999999997
  8.8898899999999994  7.4785399999999997 13.9418939000000002
  9.5002800000000001  2.3835700000000002 10.1586608999999992
 10.8620999999999999 11.4341000000000008 11.3988438999999993
  3.1670699999999998  5.2338300000000002 14.0721939000000003
 10.5223999999999993 14.2051999999999996 13.3215638999999992
 12.5192999999999994  0.6152110000000000 12.4951039000000002
  5.4613399999999999 10.0848999999999993 16.3754938999999986
  2.9361500000000000 12.4341000000000008 11.6668839000000002
  6.2641799999999996 14.2050999999999998 12.2055539000000000
  5.8481399999999999 12.2748000000000008 15.8771239000000008
  9.2811199999999996  8.3509899999999995 16.0714539000000016
  9.9264399999999995  3.4794299999999998 14.8405038999999999
 12.6487999999999996  7.7307800000000002 15.3619138999999993
 14.3506999999999998  0.4088870000000000 13.9773139000000004
 14.3133999999999997  7.5161899999999999 11.9773239000000000
  7.9552600000000000 11.8552999999999997 15.0564838999999999
  4.8266299999999998  1.0636399999999999 16.4410938999999985
 12.5533000000000001 12.1159999999999997 10.1279658999999995
  4.0667299999999997 10.3482000000000003 11.4129439000000001
  8.0002200000000006  4.9965900000000003 12.2071038999999999
  2.7061600000000001  5.9983599999999999 10.2068659000000004
  9.9387000000000008  5.7710999999999997 11.0495538999999994
  8.5474999999999994  1.1218200000000000 16.3980138999999987
 11.2734000000000005  9.2669200000000007 16.4607738999999995
  0.0823233000000000 10.9510000000000005 10.4648348999999996
 12.0520999999999994  3.8996700000000000 15.4752738999999995
  5.6327400000000001  2.6366499999999999 14.8179139000000006
 11.7089999999999996 11.2369000000000003 15.2883639000000002
  7.7871699999999997  9.9998600000000000 16.4639439000000003
  6.3988500000000004 10.3564000000000007 11.7564639000000000
