 H Si 
 1.0000000000000000
    14.5837388557004388    0.0000000000000000    0.0000000000000000
     0.0000000000000000   14.5837388557004388    0.0000000000000000
     0.0000000000000000    0.0000000000000000   27.3099929999999986
 H   Si 
  29  78
Cartesian
 12.7385562500000002  4.5714496300000000 11.6470452299999998
  3.0143905700000002  8.1305022900000008 10.0158689600000006
 13.4396329800000007  7.5629342800000003 16.8499779700000012
  4.9129758499999996  7.0114236400000003 13.5167925100000001
  1.2738144300000001  9.3695456600000000 12.7774306099999997
  2.5657744000000000  5.3095138400000002 17.1207161600000006
  2.6424523199999999  7.4966904799999998 10.1364972699999996
  3.4147856299999999  7.3853779800000003 17.8576525400000001
 12.8484792199999998  3.8647385800000000 14.4083103900000005
  2.7159002499999998  5.7916604899999999 11.3083984199999996
  3.1101529900000000  5.1582192400000002 11.3012744000000005
  1.9693156599999999  4.2553295100000001 13.4372318600000007
 13.3034140799999996  8.5555721400000007  8.4708040199999992
  0.8472825700000000  9.5171034999999993  8.9685627700000001
  1.3416937000000000  6.9524630700000003 14.0538983200000001
 12.5777169499999992  5.6625367100000004  9.4040797099999995
 12.9474592299999998  4.6106813300000002 14.4587396300000002
 -0.3272431900000000  5.5689542799999998 13.1721525499999998
 -0.4238399700000000  8.0558704300000006 12.4713956300000000
  0.5905159700000000  5.0291503500000001 15.3185470400000003
  3.3081496900000000  8.1555618800000005 12.6381108199999996
  5.3275093699999996  8.2671517399999992 16.8189385300000005
  1.2187842000000000  7.2332385400000003 16.8967564500000016
  4.0405023099999999  4.6675547599999998 13.7495286700000001
  2.5789292399999999  3.2980264400000001 15.6030996000000002
  5.4467672399999998  5.8216088499999996 16.5417748499999995
  3.2274468000000001  6.8324761799999996 15.4560428699999992
  1.1847606500000001  6.7827186399999997 11.2760318999999996
  0.6570775400000000  4.1938475999999998 11.4555663299999999
  0.1717593200000000  6.1234545000000002 14.4323283799999995
  2.0157847400000000  0.2564761300000000 15.8748206900000000
  4.0473104199999996  2.6277354499999999  9.2272995699999996
  8.6817487700000004 13.6301634299999996 14.3498398399999996
  6.9072254300000004 10.7406045799999994 16.4037658600000000
  2.8407710200000000  9.4986671900000008 15.5251027199999996
  0.9051145300000000 12.3144503899999993 13.4504984200000006
 14.1513271399999994  9.0733495899999994  9.5718850500000006
 11.2189412900000001  9.1051535900000005 12.7410463499999995
  5.9098967299999998  8.0784152299999992 13.7973103300000002
 12.6936450000000001  5.9323420300000000 10.8563620099999998
  8.2760045899999994  2.3854910299999998 13.3391383200000000
  4.9091069699999998 14.6531526700000008 13.2058948899999997
 10.1981207999999999  3.5941386600000000 13.6848652299999998
  7.7481186600000003  6.9415533700000003 14.6781196099999995
  8.1467914100000005  5.4668895800000001 11.4299345700000003
  9.4616432400000008  9.7260284000000006 14.0269352699999992
 14.0607395299999993 12.9215249700000001 10.6084612600000003
  3.3540310199999999 12.9889535800000004 16.3412721500000018
  5.2422293900000003  1.8324895900000000 14.8104917000000000
 13.6152397399999998 11.0708716799999998 12.9300509399999992
 13.0663150699999999  7.3898398600000004 15.4229388699999994
  5.2215953400000004 10.9351741699999998 10.9038798600000000
  1.9968480900000001 12.5997403299999995 11.3331851300000004
 14.2216631400000004 12.4572130199999993 16.4926676800000003
  2.6939927600000000  9.3758452400000003 13.2044685099999999
 12.7896127699999997  1.6118324100000001 11.7007828000000007
 13.0520788599999999 10.8356639000000001 10.6283227399999998
  8.7912223199999993  9.9412920200000006 17.5000832600000003
  5.3639159799999998  4.0403634500000001 14.0061428200000009
  3.7501501199999998 11.3831542500000005 12.6509692499999993
 12.5543876700000006 10.8467678400000000 16.4510562399999998
  2.9983930900000000 10.7905274599999998 10.1478582500000005
  1.6805556600000000 11.5820112399999999 15.5848225899999999
  9.9100619200000004  4.5309528600000002 10.1207931599999998
 10.1966363399999995 11.8830561299999999 14.5509013700000001
  9.9078850900000006  8.2189608799999991 10.0232291999999994
  5.5875410600000004  2.1408901800000000 10.8468525800000002
  0.0123739300000000  0.1915287100000000 17.1224091499999993
  7.5216882500000004  1.9868115000000000 15.5775488899999992
  9.9570411300000004 13.9846070299999994 10.7697725799999997
  2.6062070799999999  6.7635852999999999 16.8037766799999986
  4.6553340800000003 12.7140036199999997 14.4119950699999997
  8.5481696199999995  0.2867193100000000 12.3642034100000000
  8.9513257399999997 11.9170963600000004 11.0087697700000007
 14.3332625799999995  1.8496309900000001 13.3833983900000000
  6.5236397799999999  5.2311591100000001 15.6855352200000002
  6.4858247599999999  9.1733009600000006 11.8058303700000007
 -0.1482094300000000  7.4147711400000000 11.1662031200000005
  6.4310845399999996 14.5562827099999996 11.4335338699999998
  7.7759685200000002  7.6333287099999998 10.5969327199999999
 12.8211918800000007  9.5235428599999992 14.5015723399999992
  9.2314947200000006  8.2829859999999993 15.8735921199999996
 10.1558473899999999  4.4064958200000000 16.2218619199999985
  5.2156146799999998  9.2878716600000004 15.7343803999999992
  1.1948636300000000 14.6357950399999996 13.6820909000000004
  7.9730845600000002  3.8757646800000001 16.8176568499999988
  6.8993527500000003 12.1171453000000007 14.5720759500000003
  3.0423913300000001  2.2057037400000001 11.2294343399999992
 12.1511738299999994 14.0243579500000006 11.5486919700000001
 10.8344850400000006 13.8587153900000004 17.1963061300000000
  9.4137411499999999  0.6342922200000000 15.9200689799999999
  2.8828178900000001  0.0824620700000000 12.0799683400000006
 11.2672303899999999  3.3049179000000000 11.6591045900000001
  7.8271264100000000 10.8100550399999999 12.8024528699999998
 10.7091403300000003 10.3172882000000001 10.7574126600000000
  1.3578637800000000  3.3386147899999998 12.4469772800000005
 10.8621189900000008  7.0209100800000002 11.7654756500000008
  3.3412088600000001  2.1206973599999999 16.1178840799999996
 13.2682104499999998  1.5075180800000001 15.4919105100000003
 10.8328087300000000  6.5694190900000002 15.4913043300000002
  9.5617124199999992  5.8967486500000001 13.4199386500000006
 12.0803090199999996 12.7314190099999998 13.5020411100000004
 12.5453788900000003 13.8631513999999996 15.4939008900000008
  6.7606988599999998 12.5468115699999991 10.2135414800000000
  6.7388377000000004  3.7326220299999999 12.1539942199999995
 10.3963597100000005 11.5813467499999998 16.8580556000000001
 11.0504021199999993  2.3580929400000001 15.5572441300000008
