 H Si 
 1.0000000000000000
    14.5411363218109368    0.0000000000000000    0.0000000000000000
     0.0000000000000000   14.5411363218109368    0.0000000000000000
     0.0000000000000000    0.0000000000000000   10.0397423115275863
 H   Si 
   8  84
Cartesian
 10.6891999999999996  1.6092299999999999  2.2733599999999998
 10.8992000000000004  4.6681800000000004  1.0898800000000000
 13.3504000000000005  2.1827100000000002  8.3074700000000004
 11.1015999999999995  4.8270499999999998  5.7519799999999996
 10.9170999999999996  6.1789199999999997  3.4052400000000000
 12.8871000000000002  7.5978599999999998  5.0898599999999998
 13.6137999999999995  1.8715800000000000  2.3489900000000001
  0.6535970000000000  3.6280000000000001  0.0575351000000000
  9.4646600000000003  4.3472799999999996  1.2516300000000000
  5.2548800000000000 13.1846999999999994  9.3476900000000001
  4.7460199999999997  6.1723299999999997  1.3141200000000000
  8.7324699999999993  2.6940599999999999  7.5099799999999997
  6.8686999999999996  0.3892800000000000  5.8520300000000001
  6.5692500000000003 10.4837000000000007  6.2455100000000003
 11.6936000000000000 10.2159999999999993  1.5020199999999999
  7.8090200000000003 10.5878999999999994  0.6630650000000000
  0.2709170000000000  9.3641199999999998  8.7870200000000001
  7.4802999999999997  1.9617400000000000  4.3470599999999999
  5.7383899999999999  7.0453400000000004  3.0653899999999998
  7.5721999999999996 13.5706000000000007  2.1487099999999999
 12.7268000000000008 10.0664999999999996  7.2678900000000004
  3.3591500000000001  0.6402450000000000  4.0642199999999997
  4.8598900000000000  2.9914700000000001  6.7565799999999996
  6.0326300000000002 10.4099000000000004  3.9695800000000001
  5.7538099999999996 12.5808999999999997  3.0957200000000000
  4.2251799999999999  8.2126800000000006  0.3464750000000000
  3.5431800000000000  8.8556399999999993  6.9050399999999996
  2.9392800000000001 11.1408000000000005  6.8566099999999999
 12.2146000000000008 12.6828000000000003  4.4143600000000003
  9.4942600000000006  2.1925599999999998  5.3964200000000000
  4.1482799999999997 12.2629999999999999  1.3815299999999999
  0.6214460000000001  9.2925400000000007  4.5971700000000002
 13.9649999999999999 10.6280999999999999  0.6698930000000000
 13.3855000000000004 12.1068999999999996  6.4356900000000001
  8.2471800000000002  5.3422200000000002  9.6664200000000005
 13.2258999999999993 13.3721999999999994  2.3231799999999998
  9.4881300000000000  5.7890300000000003  3.2220700000000000
  3.1595100000000000  4.6535200000000003  2.2208800000000002
  5.6313899999999997  2.4258600000000001  1.1662500000000000
  5.9577299999999997  4.6255300000000004  0.2077240000000000
  8.8765499999999999 11.0152999999999999  6.3287000000000004
 11.7674000000000003 10.3149999999999995  3.8399100000000002
  5.9556300000000002  8.5729199999999999  7.3322300000000000
  7.6235999999999997  1.3872199999999999  2.0852200000000001
  6.5683299999999996  1.7142999999999999  7.7264699999999999
  6.5460200000000004  6.2584000000000000  6.8498000000000001
  1.0283300000000000 11.5100999999999996  5.4739899999999997
 10.9564000000000004 12.4506999999999994  8.9957399999999996
 13.0167000000000002 13.4156999999999993  8.3766700000000007
  2.6651099999999999  5.3432899999999997  8.3303600000000007
  2.4708199999999998 13.7508999999999997  2.2205100000000000
  5.0214600000000003 13.7522000000000002  4.9895699999999996
 10.2948000000000004 14.2928999999999995  4.8089899999999997
 10.1449999999999996  1.3656999999999999  9.1738900000000001
  4.9914600000000000 12.3539999999999992  7.0638300000000003
 10.4300999999999995 10.2935999999999996  8.1598500000000005
  9.6673899999999993  4.5182599999999997  5.3813300000000002
  4.8440099999999999  1.0211900000000000  9.5000599999999995
  2.7115200000000002  2.1354799999999998  6.3687800000000001
  0.2528690000000000 12.7507999999999999  9.7050900000000002
  9.4887599999999992 10.6722999999999999  4.1913200000000002
  8.2962299999999995  7.5842799999999997  0.4392260000000000
  2.5173999999999999  7.9499800000000000  4.9278100000000000
  5.5043199999999999  5.6132099999999996  4.8112000000000004
  2.1495000000000002  3.8015500000000002  9.9806500000000007
  5.6339300000000003  3.3160200000000000  4.6756099999999998
  8.0187700000000000  7.5345800000000001  2.7568500000000000
  2.4496500000000001  7.7076900000000004  8.7049000000000003
  4.2216199999999997  2.5196900000000002  2.9208599999999998
 13.5580999999999996  0.8987000000000001  1.3173299999999999
  1.8603900000000000 11.1542999999999992  8.8806899999999995
  3.1610800000000001  9.8802400000000006  1.6181099999999999
  0.8476129999999999 12.3154000000000003  3.2098300000000002
  8.4082799999999995  4.9934500000000002  7.3879299999999999
  9.6459700000000002  2.0596000000000001  1.2544500000000001
  1.2213799999999999  0.3418780000000000  0.4575010000000000
  2.7474500000000002  1.6615899999999999  8.9093199999999992
  1.8750300000000000  4.3212599999999997  6.1666699999999999
  8.7728400000000004 13.5260999999999996  6.4116099999999996
  9.5694999999999997 12.9000000000000004  3.2328800000000002
  4.9397500000000001  4.9521899999999999  8.0199900000000000
  9.2198700000000002 13.8667999999999996  8.5695800000000002
  3.0335700000000001  5.7148500000000002  4.5865000000000000
 12.9786000000000001  9.0306700000000006  5.2888999999999999
  7.9804399999999998  9.9116700000000009  2.8304299999999998
 11.0937000000000001 12.3643000000000001  1.3658200000000000
  9.9370300000000000  9.2804400000000005  0.1346410000000000
  7.4942700000000002 12.9779999999999998  9.8901500000000002
  0.9253560000000000 10.0568000000000008  2.3031100000000002
 12.5273000000000003  1.0732699999999999  9.1428399999999996
  6.3146500000000003  9.0812299999999997  9.6605100000000004
  4.2279499999999999  8.8483199999999993  3.5644000000000000
