 H Si 
 1.0000000000000000
    14.5848868248766266    0.0000000000000000    0.0000000000000000
     0.0000000000000000   14.5848868248766266    0.0000000000000000
     0.0000000000000000    0.0000000000000000   29.2821350000000038
 H   Si 
  38  96
Cartesian
 10.5176999999999996  2.9152300000000002 14.7512950000000007
 11.2180999999999997  5.9646299999999997 15.5411950000000001
  8.2069100000000006  9.5409900000000007 16.3814050000000009
 10.6388999999999996  5.4394499999999999 17.9006650000000000
  8.8146400000000007  3.1262200000000000 14.1402850000000004
 10.8820999999999994  0.1136410000000000 18.4680450000000000
 11.3900000000000006  4.0661500000000004 12.3092849999999991
  8.4417399999999994  3.7633100000000002 14.1967850000000002
  7.5300200000000004  5.6973900000000004 10.0000000000000000
  8.0415600000000005  5.7547600000000001 19.0314450000000015
 12.1872000000000007  4.4207999999999998 14.0745450000000005
 11.7568999999999999  5.6353400000000002 15.8913250000000001
  7.3956299999999997  3.8215800000000000 18.7011150000000015
 10.3825000000000003  5.2082300000000004 14.2186550000000000
 11.7684999999999995  5.2264600000000003 19.0098249999999993
  9.2364700000000006  7.0709499999999998 10.5394489999999994
 10.8484999999999996  7.0733899999999998 17.3266249999999999
  9.9451000000000001  7.1971299999999996 12.8610150000000001
  6.8311200000000003  3.5358499999999999 19.0789949999999990
 10.1613000000000007  4.4581400000000002 14.2074350000000003
  9.0057500000000008 13.7088999999999999 14.9641549999999999
 11.4871999999999996  5.9864800000000002 10.7479709999999997
 12.8867999999999991  7.4021100000000004 16.0774550000000005
  8.7824299999999997  6.8772700000000002 11.1257929999999998
 11.3817000000000004  2.6337000000000002 16.7189750000000004
 12.7056000000000004  3.8555000000000001 14.0443650000000009
  0.0935636000000000  4.2250699999999997 14.0042050000000007
 11.1168999999999993  7.4737400000000003 11.3066449999999996
  9.3317800000000002  3.4426000000000001 10.5344580000000008
 13.0676000000000005  5.6483200000000000 17.5474649999999990
 10.1227000000000000  3.6174200000000001 18.9908450000000002
  8.5296800000000008  4.6673799999999996 12.1319149999999993
  0.4422000000000000 13.3847000000000005 14.3688749999999992
 13.4178999999999995  7.6247299999999996 15.6212949999999999
  8.4391400000000001  4.6052400000000002 17.7581650000000018
  9.8611299999999993  3.5306400000000000 16.2882250000000006
 11.1235999999999997  8.0902399999999997 11.0096120000000006
 13.2066999999999997  7.6444099999999997 10.5225629999999999
  1.7642599999999999  0.6146670000000000 18.4412750000000010
 13.4029000000000007 11.8648000000000007 11.8915649999999999
  6.2714499999999997 13.5099000000000000 11.3149549999999994
  5.0892299999999997 14.2916000000000007 18.2373350000000016
  7.1468200000000000  1.1071700000000000 11.6782850000000007
  3.9614600000000002  4.5870199999999999 13.2217350000000007
  8.3565799999999992  1.2196600000000000 19.1634349999999998
  1.5810999999999999  6.6197499999999998 15.3700349999999997
  2.3705099999999999  3.2344100000000000 15.9550850000000004
  2.2775699999999999  5.9953500000000002 18.9134649999999986
  2.2403499999999998 12.7866000000000000 16.2425749999999987
  6.7153499999999999  5.2180600000000004 15.2714049999999997
 13.5513999999999992 11.2012999999999998 17.1072449999999989
  2.7687100000000000  0.6533780000000000 13.4952349999999992
  6.8079299999999998 10.9774999999999991 18.2986949999999986
  7.8599899999999998 11.0822000000000003 14.4143050000000006
  1.1216900000000001 10.7094000000000005 16.0889249999999997
 13.6701999999999995  3.9139699999999999 10.9900549999999999
  4.2413499999999997 10.9578000000000007 12.9696750000000005
 12.5793999999999997  0.4105410000000000 13.8123450000000005
  7.8928300000000000  9.0415100000000006 13.3480550000000004
  6.1934300000000002  1.7446800000000000 13.7652249999999992
  7.2687299999999997  8.7312899999999996 19.0248750000000015
  6.6408500000000004  2.8610000000000002 15.7489150000000002
 10.0558999999999994  2.2104599999999999 10.5231650000000005
  4.4200499999999998  8.9759399999999996 14.0183649999999993
  3.6800899999999999 14.4908000000000001 15.4038649999999997
  1.4435100000000001  9.8589800000000007 10.7102299999999993
 12.3262000000000000  2.2004000000000001 10.3808860000000003
  5.0111200000000000 10.4342000000000006 10.6713620000000002
  3.8418600000000001  1.5718600000000000 18.5754950000000001
  5.9828999999999999  5.6004800000000001 13.1091750000000005
  9.5012899999999991 11.9172999999999991 13.0070650000000008
 10.6292000000000009  1.5732500000000000 14.0686549999999997
 13.4357000000000006  6.5583600000000004 13.0696049999999993
  4.1953399999999998  2.3467500000000001 12.5989649999999997
  0.9882110000000000  1.1057800000000000 10.9412719999999997
 13.9779999999999998  1.3846900000000000 15.4222649999999994
  7.9571899999999998 12.0375999999999994 16.6626249999999985
  0.5347570000000000 14.3609000000000009 16.7198150000000005
 11.8238000000000003 11.4444999999999997 13.5265649999999997
 13.1928999999999998  8.8313199999999998 13.2200450000000007
  6.5080499999999999  2.8638100000000000 10.2794039999999995
  3.7614200000000002 12.3436000000000003 18.0278250000000000
  0.5730240000000000 12.8919999999999995 12.9382149999999996
  9.8600300000000001 13.6706000000000003 11.6616949999999999
  5.8664899999999998 14.2402999999999995 14.7236750000000001
  3.4566499999999998  5.2844400000000000 15.4373850000000008
 13.4672999999999998 13.3427000000000007 17.7533050000000010
  9.6981500000000000  7.7418600000000000 14.1818749999999998
 11.5585000000000004  8.1635700000000000 18.0168549999999996
 13.8178999999999998  4.5667999999999997 16.7584550000000014
  4.2103400000000004  2.7298399999999998 10.2816919999999996
 11.3972999999999995  9.4307499999999997 14.5371450000000006
  1.1958500000000001  2.2786100000000000 14.1842950000000005
  1.1778500000000001  6.8477600000000001 12.0181349999999991
 13.7276000000000007  9.7753200000000007 11.0963139999999996
  7.1100399999999997 11.3079999999999998 10.4130050000000001
 10.1447000000000003 11.8625000000000007 17.5040750000000003
 11.3506999999999998 13.8020999999999994 16.8843350000000001
  5.9751500000000002  7.8286899999999999 12.7113549999999993
  8.1799999999999997  1.4482900000000001 16.8611450000000005
 12.1128999999999998 13.4825999999999997 11.2336449999999992
 14.3930000000000007  5.4190800000000001 14.7820149999999995
  2.2507500000000000  7.9980700000000002 13.7256950000000000
  9.7113200000000006  4.8197700000000001 16.9529749999999986
 12.4626000000000001 12.9437999999999995 15.0257249999999996
 11.9960000000000004  5.2338199999999997 11.8069950000000006
  2.2619199999999999 13.8794000000000004 11.7320349999999998
  4.9825799999999996  8.1571200000000008 10.5222709999999999
  8.6165500000000002  6.4868899999999998 15.7752549999999996
  9.7350200000000005  0.2337270000000000 15.7108849999999993
  7.2946900000000001  4.9259100000000000 11.3197250000000000
  5.1485300000000001  6.2700800000000001 16.6487049999999996
  4.7936300000000003 10.0881000000000007 17.6296950000000017
  2.4261800000000000  9.5151100000000000 17.5353050000000010
  9.2656899999999993  1.1893100000000001 12.4464749999999995
  2.4193199999999999  4.9505200000000000 11.6082950000000000
  6.8548799999999996 14.1234999999999999 16.7792150000000007
  5.3603899999999998  8.5416899999999991 16.0417449999999988
 11.5564999999999998 10.1379999999999999 16.7033149999999999
  1.0427100000000000  3.1568000000000001 12.0265850000000007
  1.3787000000000000  7.4929899999999998 17.3996749999999984
 13.8404000000000007  7.9490400000000001 18.5961549999999995
  8.8165800000000001 10.2463999999999995 11.5934550000000005
  6.1221300000000003 12.4649999999999999 13.4461549999999992
  1.2608100000000000  4.1163900000000000 17.7841950000000004
 12.7469000000000001  2.5637699999999999 17.2072250000000011
  7.6013900000000003  8.2517499999999995 16.7720650000000013
  1.9532600000000000 10.9863000000000000 12.6349649999999993
  4.1900800000000000 13.6051000000000002 10.3593200000000003
  4.6143799999999997  6.2223499999999996 18.9609150000000000
 13.4193999999999996  0.7189070000000000 11.7589050000000004
 13.8893000000000004 10.2022999999999993 19.2821350000000002
  0.7126960000000000  9.6942299999999992 14.0307750000000002
  4.3167299999999997  1.9958700000000000 16.4266350000000010
