 H Si 
 1.0000000000000000
    14.5284224467457541    0.0000000000000000    0.0000000000000000
     0.0000000000000000   14.5284224467457541    0.0000000000000000
     0.0000000000000000    0.0000000000000000   26.0211538000000004
 H   Si 
   5  65
Cartesian
  3.2418885999999998  1.9976179400000000 13.4538509899999994
 12.8429046299999996 11.7085361900000002 16.4849457299999997
  3.2743352400000001  7.4519416300000003 10.8190828299999993
 10.5745620200000001  7.9302967999999998 10.6119983300000005
  7.5346902699999996  5.6845447199999999 12.7760634399999997
  3.1283123800000001  7.6346466499999996 12.2922062200000006
  9.7744000000000000 14.7816444499999999 15.4245972499999997
  1.0825775799999999 11.6048798600000005 12.1898908099999996
 12.0719793899999992 14.6012512399999999 15.7184352599999997
  5.3310800800000004 12.6097101600000006 10.8778048900000002
  7.4773090000000000 11.9425934100000006 13.5997736299999996
 13.0110158899999995 12.4771380500000006 15.2201985999999998
  5.6138767500000002  2.3039207899999998 15.1479119200000003
 14.4305084600000004  4.6910990400000001 14.3182269699999996
 11.0033691299999994  3.3777557900000001 11.5352896699999992
  9.0265757799999999  2.5039593500000001 14.7794725000000007
  6.7108762100000003  7.0803325900000003 10.2711750599999991
  8.4339420199999999  1.8502851800000000 12.6143552299999993
  5.4314593400000000  5.1746012600000002 10.0163802099999995
 -0.0716477500000000  9.6442582199999993 11.7218786099999992
  0.7981084899999999  7.7059699699999999 12.6894645399999995
 12.7155483000000000  8.4527354900000002 15.5366662400000006
  1.5675628800000001  4.0789184399999998 11.0127113199999993
  7.4690913700000001  8.1988289900000009 13.9776515999999997
  4.2922291200000000  5.8257326400000000 13.3353977500000003
 11.7969673999999998  1.1563136599999999 11.7602540100000006
  1.5244359700000001  1.3870776000000000 15.6911859499999995
  3.8605801099999999  4.3699727900000003 11.5411764500000000
  9.8086181600000000  7.9288314399999997 13.7623838799999998
  9.0139003500000001  9.4559156800000004 16.0526951900000014
  6.4398475399999997  8.8044478200000000 11.9040579700000002
 14.5930637300000008  5.5301899299999997 12.0980589300000005
  4.3416413699999996 10.2943557000000006 14.9475374399999996
  8.3581447299999994  5.8024479900000001 11.3110140700000006
  8.6622902300000000  3.5177930000000002 11.0105266400000001
  6.8851395599999998 10.1900881299999995 15.1446804900000007
  9.4889174199999999 13.2249838400000002 13.6741216399999992
 11.0322401600000006  6.8291587700000003 15.4875628400000007
 11.0022220300000004  3.2985544899999999 13.9589479000000001
 10.9567057299999995  9.7245208800000000 14.6554157400000005
  3.3432176500000002  2.6345331000000001 14.9749891200000000
  9.6947413000000005  0.0578345800000000 11.7591058700000008
  0.5635896400000000  8.0909444399999995 15.0042178699999997
  0.7560523800000000 12.0034297700000003 14.5605668700000006
 12.5981778999999996  9.5037839300000009 10.4309141800000003
  7.0060064200000003 11.0330622599999995 11.4887610799999997
 -0.4361926500000000 12.9387915800000002 11.1143493499999995
  2.1420337500000000 13.7737909500000004 15.0818541600000007
  4.3344970600000003  9.5534841600000000 12.7584521100000003
  3.6121747100000001 13.5009625399999997 13.3358777300000000
  2.9440816500000002  4.9062546600000001 14.9504259400000006
 12.1568185799999995  5.2387299100000000 14.2653166500000008
  4.9438818600000003  2.2868246499999998 11.4085303699999994
  6.5888361599999996  5.9512242200000003 14.1434406399999997
 12.1933322900000007  5.4138151099999998 11.8901172499999994
  6.2473946500000004  1.3527689800000000 13.1234373299999998
 10.3873466499999996  6.9332518500000004 11.6971393300000006
 12.4992349500000000  1.5095019100000000 14.0025711099999999
  6.5709084600000001  3.1304322700000000  9.8425221599999997
  3.4330601199999999 11.5987770999999995 11.9581465799999993
 11.3649023600000003 11.7857426899999993 13.6878860899999992
  5.8972053799999999 13.5858686899999999 12.9929146699999993
  0.1560185600000000  2.3403178100000002 14.0281212800000006
  1.0158636200000000  1.9436799499999999 11.8309719999999992
 12.4287065600000002 11.4384984500000009 11.6317973000000006
  1.1156752700000001  5.9186996599999997 15.8658151600000004
  3.1270987300000002  0.9129792900000000 12.0116744000000004
  7.1970917200000004  3.9456442500000000 15.3932285699999998
  1.9511532599999999 10.0398790600000005 15.2097513400000004
 13.8582803800000001  0.6487495900000000 10.7931889400000003
