 H Si 
 1.0000000000000000
    14.5272655360525302    0.0000000000000000    0.0000000000000000
     0.0000000000000000   14.5272655360525302    0.0000000000000000
     0.0000000000000000    0.0000000000000000   10.7608389596447367
 H   Si 
   4  94
Cartesian
 12.0945999999999998 11.3733000000000004  9.9016400000000004
  2.7002799999999998 11.7024000000000008  2.1141800000000002
  1.1099800000000000 13.9153000000000002  9.9899900000000006
  2.8982100000000002  2.3741800000000000  5.2744400000000002
  5.3433700000000002 11.9899000000000004  9.2900200000000002
 12.8655000000000008  3.6503999999999999 10.3124000000000002
  7.8645500000000004 13.3879999999999999  0.1971950000000000
  0.4416390000000000  5.2986700000000004  5.0642600000000000
 12.3300000000000001 12.8754000000000008  3.0850000000000000
 10.4859000000000009  1.3079200000000000  4.7463300000000004
  2.4682300000000001  6.8036799999999999  1.8522700000000001
  9.1751799999999992 10.6548999999999996  3.1843900000000001
  0.3395360000000000  1.4442299999999999  7.5646599999999999
  8.5192399999999999  4.8505599999999998  5.9532299999999996
 12.7812999999999999  1.6553500000000001  4.0889400000000000
  7.7283900000000001 10.9406999999999996  0.9972230000000000
  1.6177500000000000  3.2809599999999999  1.0092300000000001
 12.7135999999999996  0.5395930000000000  2.0437400000000001
  0.4820670000000000  5.3466300000000002  7.5594999999999999
  6.3499400000000001  2.4550200000000002  4.3678999999999997
  2.6392899999999999  5.4125300000000003  8.7327999999999992
  2.9774099999999999  3.0914799999999998  3.0225700000000000
 10.0731000000000002 13.9289000000000005  7.8365700000000000
  3.6581199999999998 10.4909999999999997  2.0680499999999999
  8.2382299999999997  7.1533800000000003  5.7072599999999998
 12.4353999999999996  8.8933499999999999  2.5775999999999999
  0.9194550000000000  0.8349210000000000  9.8231999999999999
  7.5991900000000001  7.9573499999999999  3.6446299999999998
  4.3620599999999996  0.0378587000000000  6.7706900000000001
 14.2504000000000008  7.5233299999999996  4.9603000000000002
 10.3992000000000004  8.1666600000000003  5.9281499999999996
 11.9475999999999996  7.5572800000000004  4.4259000000000004
  2.6185999999999998  1.6959400000000000  6.6943200000000003
  3.0103399999999998  1.9846200000000001 10.2329000000000008
 10.7022999999999993  3.0641300000000000 10.7075999999999993
  4.3102700000000000 12.1797000000000004  7.1501599999999996
  2.6036700000000002  5.2931499999999998  3.9301800000000000
  5.7971100000000000 14.1515000000000004 10.1202000000000005
 10.7599999999999998  0.9603480000000000  0.8123560000000000
  6.8227099999999998  4.8142399999999999  9.8440200000000004
 10.5310000000000006 13.5625999999999998  4.3523500000000004
 13.8312000000000008  3.4319000000000002  8.2358300000000000
  2.5827000000000000  8.9108199999999993  7.4077299999999999
  7.6237700000000004  8.0996900000000007  7.5969899999999999
  7.6741900000000003 10.3550000000000004  6.6189700000000000
  1.8900600000000001  8.9214099999999998  2.0327600000000001
  2.8140299999999998 10.8041000000000000  6.0548500000000001
  8.6646300000000007  0.4646240000000000  1.9279599999999999
 11.2708999999999993  1.2591300000000001  6.8188500000000003
  9.7602300000000000 10.5106000000000002  5.5136599999999998
 14.1940000000000008  1.9651500000000000  0.6749940000000000
  0.3266410000000000  8.6704200000000000  6.8386300000000002
  5.9728599999999998  3.2517700000000000  8.0243500000000001
  9.7229299999999999  6.5748100000000003  0.2274310000000000
  7.1020899999999996 13.4230999999999998  4.9431000000000003
  5.9304600000000001 11.4823000000000004  5.6043799999999999
 11.9990000000000006  3.6536499999999998  6.8117000000000001
  5.4482299999999997  8.1574100000000005 10.7033000000000005
 11.2316000000000003  7.2180900000000001  7.9338400000000000
  4.8500800000000002  6.9819800000000001  1.7338800000000001
 13.0038999999999998  4.0300399999999996  4.5623800000000001
  6.1840200000000003  0.8378940000000000  8.0981600000000000
 10.2787000000000006  5.0883700000000003  7.6764000000000001
  4.4307800000000004  6.0072799999999997  5.3617299999999997
  1.4853900000000000  5.5980499999999997  0.0649957000000000
 12.0708000000000002  6.7053200000000004  1.3219300000000000
 11.4977000000000000  5.3857999999999997  3.3604099999999999
  7.8857100000000004 13.9694000000000003  7.2261699999999998
  5.3590400000000002  0.4513230000000000  4.6914400000000001
  8.3242100000000008  6.1455399999999996  2.1350199999999999
  0.3761510000000000 10.7605000000000004  5.5086000000000004
  5.4881799999999998 10.3751999999999995  0.3919420000000000
 10.9835999999999991 12.4822000000000006  6.3135199999999996
  9.0614200000000000 10.4021000000000008  9.8960799999999995
 13.7080000000000002  7.2513399999999999  8.2822700000000005
  6.1996000000000002  4.3374499999999996  5.9126899999999996
  3.9033099999999998  6.9637799999999999  7.5568700000000000
  7.7151399999999999 11.8757000000000001  8.3947599999999998
  9.3052499999999991  4.5923999999999996  3.6990099999999999
  5.2740400000000003  7.9263599999999999  3.8838100000000000
 11.2843000000000000 10.9460999999999995  2.1270500000000001
  9.1926900000000007  4.5926000000000000  9.7004900000000003
  3.6195200000000001  3.2669899999999998  8.2887199999999996
  3.5140400000000001  0.7017970000000000  3.0372699999999999
  4.5697200000000002  1.0266800000000000  0.9614400000000000
  9.5006599999999999  8.1443700000000003  9.2017000000000007
  6.2943499999999997  5.0385400000000002  1.4580500000000001
  4.4551200000000000 10.0142000000000007  4.3165399999999998
 13.3618000000000006 12.6301000000000005  5.3544299999999998
  8.6418700000000008  2.2679999999999998  3.6159900000000000
  8.6234699999999993 12.9993999999999996  3.2802899999999999
  5.2105600000000001  2.9572099999999999  2.2571300000000001
  6.0068799999999998  7.0679499999999997  8.8805899999999998
 10.0663000000000000 13.6920999999999999 10.1785999999999994
 13.7280999999999995  5.9951299999999996 10.3696000000000002
 13.3690999999999995  0.3838760000000000  6.1083600000000002
 10.8588000000000005 11.6597000000000008 10.6683000000000003
 14.5250000000000004  9.3292099999999998  3.4379000000000000
