 H Si 
 1.0000000000000000
    14.5284224467457541    0.0000000000000000    0.0000000000000000
     0.0000000000000000   14.5284224467457541    0.0000000000000000
     0.0000000000000000    0.0000000000000000   26.3022789000000010
 H   Si 
   2  67
Cartesian
  3.0045299999999999  4.9753200000000000 15.4136489000000001
 11.9574999999999996  1.3617100000000000 10.8378818999999993
  6.8486300000000000 14.3604000000000003 13.6255588999999997
 11.7565000000000008  9.1907499999999995 14.8157388999999995
  0.9219100000000000  6.8634500000000003 14.9172788999999995
  0.1989080000000000 11.3606999999999996 13.6937989000000009
 13.4412000000000003 10.9906000000000006 11.8890489000000006
  4.4500900000000003  5.5405800000000003 15.4217589000000004
  4.8484900000000000 14.0502000000000002 12.3075788999999993
  5.6793699999999996 10.2980000000000000 12.5761588999999994
  5.4638099999999996  0.3283980000000000 15.4697089000000005
  9.2789500000000000 11.0115999999999996 11.2828088999999991
  1.8289299999999999  9.7467299999999994 13.4713688999999999
 13.6531000000000002 14.4695999999999998 10.9320208999999995
 12.6638999999999999  4.2013900000000000 14.9542488999999996
  5.5109300000000001  3.7195000000000000 12.2940389000000003
  9.1999200000000005  8.6680200000000003 10.7051829000000005
  6.0604899999999997 11.4611000000000001 16.0714389000000004
  8.1398700000000002  7.8075299999999999 14.7482389000000005
  0.9217600000000000  0.7791280000000000 14.5065788999999992
 14.0441000000000003  7.1949399999999999 13.1108989000000005
 14.0398999999999994  1.0329999999999999 16.2848989000000017
  7.6687000000000003  4.0469099999999996 15.6468688999999994
  3.4139499999999998 11.0387000000000004 12.4267789000000004
 11.1007999999999996  5.3073100000000002 11.3041388999999999
  7.1017799999999998  7.5843999999999996 11.1839989000000006
  2.3986499999999999  2.5773999999999999 14.4794988999999994
 13.2523999999999997 11.0120000000000005 15.4171388999999994
  6.9151600000000002  2.3064100000000001 10.9178799000000009
  0.0546863000000000  3.8927999999999998 12.4846488999999998
  9.1266900000000000 11.6318000000000001 13.4468589000000005
  9.0490399999999998  2.2501000000000002 12.1023989000000007
 13.9503000000000004  1.6717200000000001 12.8039889000000002
 10.6257000000000001  1.7975399999999999 10.5050518999999998
 12.4520000000000000  8.8237199999999998 12.6485889000000000
  1.8154999999999999  4.5428699999999997 11.1871489000000004
  4.2801200000000001  7.1836900000000004 13.9044688999999995
 12.2274999999999991  7.4766700000000004 16.3022789000000010
  2.8754900000000001  6.5016299999999996 11.9274889000000002
  6.7830899999999996 11.9227000000000007 13.9029489000000002
  7.2649900000000001  5.3921299999999999 11.5924089000000006
 11.0132999999999992  5.5816900000000000 15.7610089000000002
  8.9942200000000003  0.7018970000000000 13.8687688999999992
  8.5766500000000008  1.9359000000000000 15.8416288999999999
  6.2945200000000003  8.1774400000000007 13.2803889000000002
 10.6495999999999995 12.3968000000000007 10.0000000000000000
  9.6165699999999994  9.8539800000000000 14.7802688999999994
  3.4721299999999999 12.8463999999999992 13.7157488999999995
  3.2892199999999998  0.8367030000000000 10.9878189000000006
 11.6414000000000009 12.6371000000000002 15.8223389000000001
  7.0693500000000000 11.0763999999999996 10.6826269000000007
  9.3287600000000008  4.5807500000000001 12.5279288999999991
  2.2858499999999999 11.9434000000000005 10.5982079000000002
  5.8547599999999997 13.0630000000000006 10.4593778999999998
  0.7547520000000000  4.4752799999999997 14.7881789000000001
 12.9022000000000006  5.2288500000000004 12.8097888999999991
  1.1452599999999999  8.1702200000000005 11.9181989000000002
  4.1693899999999999 12.8091000000000008 15.9883688999999993
  9.1165000000000003  5.6153199999999996 14.4735489000000008
  1.2744300000000000 13.9940999999999995 11.2314389000000006
  5.7162899999999999  3.8572299999999999 14.5761189000000009
 10.6227999999999998 13.3815000000000008 13.7982288999999998
 12.4405999999999999  1.9243100000000000 14.8032988999999997
  4.3854199999999999  2.3174600000000001 15.6845888999999996
 11.3432999999999993  7.6963100000000004 10.8474049000000008
  1.3136099999999999 13.3646999999999991 13.4050489000000006
  3.1241099999999999  2.8898700000000002 12.0431389000000006
  2.6957399999999998  8.3086000000000002 15.0602388999999999
 12.1199999999999992 12.9337000000000000 11.8614488999999992
