 H Si 
 1.0000000000000000
    14.5411363218109368    0.0000000000000000    0.0000000000000000
     0.0000000000000000   14.5411363218109368    0.0000000000000000
     0.0000000000000000    0.0000000000000000   27.8058021000000011
 H   Si 
   8  84
Cartesian
  8.1098464099999994  3.7635858400000002 11.2893680799999991
  0.1801324800000000  9.3598685600000007 12.5359758600000006
  0.2430271400000000  1.7504905600000000 18.1259976899999984
 13.1179682599999996  4.8038153499999998 14.8320141200000002
  1.8767760200000001  7.4429036100000001 13.1198458299999992
  1.4964098200000000  5.1826743500000001 14.4588844999999999
  6.3509606500000002  2.6031671300000001 13.1856377400000007
  8.1756764600000000 12.5666139099999992 16.5621059399999986
  9.7108619699999998  1.7348674399999999 14.1919186100000001
  9.6094836899999994  9.4133864500000008 15.5869647800000006
  6.4364926000000002 13.6724478000000005 10.6980131400000005
 11.4644186099999992  9.3263641100000001 10.0583706199999998
 12.6183311299999996  2.8196106900000002 11.8207369700000005
  0.6487090000000000  3.5656807700000002 10.0240134899999997
 14.2374482699999998 12.0257909600000001 10.7315762299999999
 14.5962258499999997  8.3397493699999998 11.0733468199999994
 10.6624873299999994  7.3731122899999999 15.1201218100000006
  8.9014427299999994  6.6898624900000003 12.0061948399999991
  8.8695813399999999 12.2588498000000001 13.5330211100000000
 12.9650442199999993 10.6235880799999993 16.1615634499999992
  3.6644723300000002 10.8910289400000000 10.5061952900000009
 10.7634221100000005 11.0530219100000000 16.7158493899999989
  4.1546447100000004  6.0069254699999997 16.4640208199999982
  1.8569964699999999 11.8218350799999996 11.6702747900000006
 11.3765279400000008  2.8534667699999998 16.4457422899999983
 12.5611781300000001 11.9808537400000006 12.3990718799999993
 12.1274360300000001  6.9416731800000004 16.8543375799999993
  9.4192978400000005 10.0604318399999997 13.3428308399999995
  1.2126452000000001  8.4600018400000003 16.2218237899999984
  0.4332306000000000  4.6044318300000002 17.2581510000000016
 11.6407109999999996 14.1429549399999992 11.8870567200000004
  7.4649611100000000  9.8525776100000009 10.5037464600000003
  8.4774711899999993  2.3625663900000000 10.8967887500000007
  5.3635645600000004  4.0707410199999998 16.6375373199999999
  1.4278229300000000  2.0120664200000000 12.5626186900000008
 10.8836516700000008  7.1514195100000002 10.7087433700000005
  2.9655847400000002  5.2535401400000001 11.6261123400000006
 -0.1927890500000000 13.8188637399999994 15.3276130199999994
  9.4122823800000006  3.7783257600000000 15.2678067199999994
  2.1372122700000000  7.4226429700000001 11.6402225000000001
  4.9347996199999997 12.8923616899999995 16.6216688800000014
  3.1604124300000001 12.1203994200000000 15.2654461999999995
  7.2969844500000001  7.2791366300000000 14.7694735099999992
 14.9593427800000001 10.5096378099999992 17.4365861500000001
  1.8445479100000000  6.0822393999999997 16.1248880200000002
  9.1187491499999993  5.8834380599999996 14.2200397299999999
  9.7784851400000008  0.5673348000000000 16.2118212499999998
 12.3262082100000008  8.0717110699999992 13.6032231499999998
 13.1483895400000002  1.3571941800000000 15.6124037700000002
 12.9663375199999997  6.7937511700000002 11.7592790899999997
  6.3160230700000000 10.0762978400000005 14.4018974400000008
  7.3806267600000002  9.0837847400000005 16.2551010500000004
  4.4569543600000001  2.2964916299999998 15.5016004100000000
 12.8599825400000007  4.8077251800000003 16.3265459100000001
  5.8693290300000003 11.4663589399999992 11.1140551100000007
  3.0521307200000001  3.6485406100000000  9.9400660100000007
 11.9462937300000007  1.4064839800000000 13.5199609600000006
  1.5063254200000000  0.3352009900000000 14.1307858000000000
  3.0233314800000000 13.9711210399999999 17.4375283799999998
  3.5964707900000001  2.0688069499999999 11.6646151299999996
 13.5064224100000008  8.4156195199999999 15.6120462000000000
  2.4488023499999998  1.2701653399999999 16.0383799300000014
  3.9562501900000000  8.8628878199999992 11.5199004699999996
 13.9616648300000001  4.7050408299999997 11.7924794100000003
  1.3337704300000000  4.3299942199999997 13.0568597999999998
  6.2728711300000004 14.4164565699999994 13.5033111199999993
  5.0931691700000004  5.3273674099999999 12.6404966099999996
  5.0674061899999998  6.7649876999999998 14.4874442800000001
  1.3007696300000000 12.6098911999999999 16.7153654299999985
  6.5627844599999996 12.1011526200000006 13.2787005199999992
 13.7679492200000002 11.8136229400000001 14.3299404300000006
  4.4090847100000001  8.9197734700000009 13.8226698199999998
  6.8162053100000000  5.9123542200000001 11.0669126700000007
  8.2339733600000002  0.8360624900000000 12.6085820700000006
  4.9354941900000000  3.0864072400000002 13.3075843200000001
  4.5550609299999998 14.4994302800000003 11.9326839499999995
  0.9660930000000000 10.5371207699999996 13.3639499300000004
  9.4624020800000004 12.7933620300000008 15.8148293700000000
  0.5029847400000000  2.3414411799999999 16.7746403400000013
 11.4626943000000008  9.8977211399999998 12.2976527000000004
  7.5837108700000000  3.4924813000000001 16.7218689100000013
  5.8306011499999997  0.3641890600000000 15.7414542900000001
 13.7390638099999993  9.9548480799999997  9.6426427100000005
  7.6662515999999998  1.2297255499999999 16.8302757099999987
  6.0633116200000003  8.0814587299999996 10.8674346899999996
  2.8869525500000002 13.2899740800000004 13.1503479500000005
  2.5706964800000001  9.8359333099999997 14.8677371800000007
 13.3223371499999992 14.1385375100000008 10.2051143100000008
  7.6390414099999999  8.6716456199999996 12.7165049900000007
 14.3659858899999993  1.5627734600000001 10.9137348900000006
  9.3560101800000002 13.5723819999999993 11.7064019399999992
 10.7718768699999998  2.0109035000000000 10.6790690200000000
