H  Si
 1.0000000000000000
    15.3583592873718118    0.0000000000000000    0.0000000000000000
     7.6791796436859050   13.3007293033126572    0.0000000000000000
     0.0000000000000000    0.0000000000000000   31.7562948563737564
 H   Si 
  32 128
Cartesian
  0.0000000000000000  0.0000000000000000  8.5154984521564643
  1.9197949082565313  3.3251823300000001  8.4402380430225215
  3.8395898200000000  0.0000000000000000  8.4762457055745397
  5.7593847299999998  3.3251823300000001  8.5979609315490766
  5.7593847299999998  9.9755469800000007  8.5183805812909732
  7.6791796400000001  6.6503646500000002  8.4951924554120790
  9.5989745499999994  9.9755469800000007  8.4492116088941351
  3.8395898200000000  6.6503646500000002  8.3634092363986774
  9.5989745499999994  3.3251823300000001  8.3087233569095513
 11.5187694700000005  0.0000000000000000  8.3287961581123557
 13.4385643800000008  3.3251823300000001  8.3447562959592361
  7.6791796400000001  0.0000000000000000  8.5126117635090530
 11.5187694700000005  6.6503646500000002  8.5122494447032988
 13.4385643800000008  9.9755469800000007  8.4855283777601738
  0.0000000026281874  6.6503646500000002  8.5208136085918635
  1.9197949126281877  9.9755469800000007  8.4221656708683632
 13.4385643800000008  9.9755469800000007 23.1096767268235261
  0.0000000026281874  6.6503646500000002 23.3541900061648136
  1.9197949126281877  9.9755469800000007 23.3591572303589601
 11.5187694700000005  6.6503646500000002 23.3624579243447883
  0.0000000026281874 13.3007293000000004 23.3075138444651024
  9.5989745499999994  3.3251823300000001 23.2396309448925606
 11.5187694700000005  0.0000000000000000 23.4648082778262506
 13.4385643800000008  3.3251823300000001 23.4345648957923842
  3.8395898182652228  6.6503646500000002 23.3082811475905309
  5.7593847326281882  9.9755469800000007 23.2588645759320016
  7.6791796400000001  6.6503646500000002 23.2307876124882675
  9.5989745499999994  9.9755469800000007 23.2204997745689852
  1.9197949100000000  3.3251823300000001 23.3536988805377916
  3.8395898200000000  0.0000000000000000 23.1776429309104302
  5.7593847299999998  3.3251823300000001 23.2869443151546029
  7.6791796384367146 13.3007293000000004 23.1548589083902954
  0.0000000000000000  0.0000000000000000 10.0000000000000000
  0.0000000000000000  0.0000000000000000 12.3512589699999999
 13.4385643800000008  1.1083941100000001 13.1350119599999999
 13.4385643800000008  1.1083941100000001 15.4862709299999999
  7.6791796400000001 11.0839410899999997 13.1350119599999999
  7.6791796400000001 11.0839410899999997 15.4862709299999999
  1.9197949100000000  1.1083941100000001 13.1350119599999999
  1.9197949100000000  1.1083941100000001 15.4862709299999999
 19.1979491099999997 11.0839410899999997 13.1350119599999999
 19.1979491099999997 11.0839410899999997 15.4862709299999999
  1.9197949100000000  3.3251823300000001 10.0000000000000000
 17.2781541999999995  3.3251823300000001 12.3512589699999999
  3.8395898200000000  0.0000000000000000 10.0000000000000000
  3.8395898200000000  0.0000000000000000 12.3512589699999999
  5.7593847299999998  3.3251823300000001 10.0000000000000000
  5.7593847299999998  3.3251823300000001 12.3512589699999999
 15.3583592899999992  4.4335764299999996 13.1350119599999999
 15.3583592899999992  4.4335764299999996 15.4862709299999999
  5.7593847299999998  9.9755469800000007 10.0000000000000000
  5.7593847299999998  9.9755469800000007 12.3512589699999999
  7.6791796400000001  6.6503646500000002 10.0000000000000000
  7.6791796400000001  6.6503646500000002 12.3512589699999999
  9.5989745499999994  9.9755469800000007 10.0000000000000000
  9.5989745499999994  9.9755469800000007 12.3512589699999999
  3.8395898200000000  6.6503646500000002 10.0000000000000000
  3.8395898200000000  6.6503646500000002 12.3512589699999999
 17.2781541999999995  7.7587587600000001 13.1350119599999999
 17.2781541999999995  7.7587587600000001 15.4862709299999999
  3.8395898200000000  4.4335764299999996 13.1350119599999999
  3.8395898200000000  4.4335764299999996 15.4862709299999999
  5.7593847299999998  7.7587587600000001 13.1350119599999999
  5.7593847299999998  7.7587587600000001 15.4862709299999999
 11.5187694700000005 11.0839410899999997 13.1350119599999999
 11.5187694700000005 11.0839410899999997 15.4862709299999999
  9.5989745499999994  3.3251823300000001 10.0000000000000000
  9.5989745499999994  3.3251823300000001 12.3512589699999999
 11.5187694700000005  0.0000000000000000 10.0000000000000000
 11.5187694700000005  0.0000000000000000 12.3512589699999999
 13.4385643800000008  3.3251823300000001 10.0000000000000000
 13.4385643800000008  3.3251823300000001 12.3512589699999999
  7.6791796400000001  0.0000000000000000 10.0000000000000000
  7.6791796400000001  0.0000000000000000 12.3512589699999999
  5.7593847299999998  1.1083941100000001 13.1350119599999999
  5.7593847299999998  1.1083941100000001 15.4862709299999999
 15.3583592899999992 11.0839410899999997 13.1350119599999999
 15.3583592899999992 11.0839410899999997 15.4862709299999999
  9.5989745499999994  1.1083941100000001 13.1350119599999999
  9.5989745499999994  1.1083941100000001 15.4862709299999999
 11.5187694700000005  6.6503646500000002 10.0000000000000000
 11.5187694700000005  6.6503646500000002 12.3512589699999999
  9.5989745499999994  7.7587587600000001 13.1350119599999999
  9.5989745499999994  7.7587587600000001 15.4862709299999999
 11.5187694700000005  4.4335764299999996 13.1350119599999999
 11.5187694700000005  4.4335764299999996 15.4862709299999999
 13.4385643800000008  7.7587587600000001 13.1350119599999999
 13.4385643800000008  7.7587587600000001 15.4862709299999999
  7.6791796400000001  4.4335764299999996 13.1350119599999999
  7.6791796400000001  4.4335764299999996 15.4862709299999999
 13.4385643800000008  9.9755469800000007 10.0000000000000000
 13.4385643800000008  9.9755469800000007 12.3512589699999999
 15.3583592899999992  6.6503646500000002 10.0000000000000000
 15.3583592899999992  6.6503646500000002 12.3512589699999999
 17.2781541999999995  9.9755469800000007 10.0000000000000000
 17.2781541999999995  9.9755469800000007 12.3512589699999999
 15.3583592899999992  8.8671528700000000 16.2700239199999999
 15.3583592899999992  8.8671528700000000 18.6212828899999998
 13.4385643800000008  9.9755469800000007 19.4050358900000006
 13.4385643800000008  9.9755469800000007 21.7562948600000006
 15.3583592899999992  6.6503646500000002 19.4050358900000006
 15.3583592899999992  6.6503646500000002 21.7562948600000006
 17.2781541999999995  9.9755469800000007 19.4050358900000006
 17.2781541999999995  9.9755469800000007 21.7562948600000006
 11.5187694700000005  6.6503646500000002 19.4050358900000006
 11.5187694700000005  6.6503646500000002 21.7562948600000006
 17.2781541999999995 12.1923351899999997 16.2700239199999999
 17.2781541999999995 12.1923351899999997 18.6212828899999998
 19.1979491099999997  8.8671528700000000 16.2700239199999999
 19.1979491099999997  8.8671528700000000 18.6212828899999998
 21.1177440199999999 12.1923351899999997 16.2700239199999999
 21.1177440199999999 12.1923351899999997 18.6212828899999998
 15.3583592899999992 13.3007293000000004 19.4050358900000006
 15.3583592899999992 13.3007293000000004 21.7562948600000006
 13.4385643800000008  5.5419705400000003 16.2700239199999999
 13.4385643800000008  5.5419705400000003 18.6212828899999998
 15.3583592899999992  2.2167882200000002 16.2700239199999999
 15.3583592899999992  2.2167882200000002 18.6212828899999998
 17.2781541999999995  5.5419705400000003 16.2700239199999999
 17.2781541999999995  5.5419705400000003 18.6212828899999998
 11.5187694700000005  2.2167882200000002 16.2700239199999999
 11.5187694700000005  2.2167882200000002 18.6212828899999998
  9.5989745499999994  3.3251823300000001 19.4050358900000006
  9.5989745499999994  3.3251823300000001 21.7562948600000006
 11.5187694700000005  0.0000000000000000 19.4050358900000006
 11.5187694700000005  0.0000000000000000 21.7562948600000006
 13.4385643800000008  3.3251823300000001 19.4050358900000006
 13.4385643800000008  3.3251823300000001 21.7562948600000006
 19.1979491099999997  6.6503646500000002 19.4050358900000006
  3.8395898200000000  6.6503646500000002 21.7562948600000006
  9.5989745499999994 12.1923351899999997 16.2700239199999999
  9.5989745499999994 12.1923351899999997 18.6212828899999998
 11.5187694700000005  8.8671528700000000 16.2700239199999999
 11.5187694700000005  8.8671528700000000 18.6212828899999998
 13.4385643800000008 12.1923351899999997 16.2700239199999999
 13.4385643800000008 12.1923351899999997 18.6212828899999998
  7.6791796400000001  8.8671528700000000 16.2700239199999999
  7.6791796400000001  8.8671528700000000 18.6212828899999998
 21.1177440199999999  9.9755469800000007 19.4050358900000006
 21.1177440199999999  9.9755469800000007 21.7562948600000006
  7.6791796400000001  6.6503646500000002 19.4050358900000006
  7.6791796400000001  6.6503646500000002 21.7562948600000006
  9.5989745499999994  9.9755469800000007 19.4050358900000006
  9.5989745499999994  9.9755469800000007 21.7562948600000006
  3.8395898200000000  2.2167882200000002 16.2700239199999999
  3.8395898200000000  2.2167882200000002 18.6212828899999998
  1.9197949100000000  3.3251823300000001 19.4050358900000006
  1.9197949100000000  3.3251823300000001 21.7562948600000006
  3.8395898200000000  0.0000000000000000 19.4050358900000006
  3.8395898200000000  0.0000000000000000 21.7562948600000006
  5.7593847299999998  3.3251823300000001 19.4050358900000006
  5.7593847299999998  3.3251823300000001 21.7562948600000006
 23.0375389300000002 13.3007293000000004 19.4050358900000006
  7.6791796400000001 13.3007293000000004 21.7562948600000006
  5.7593847299999998  5.5419705400000003 16.2700239199999999
  5.7593847299999998  5.5419705400000003 18.6212828899999998
  7.6791796400000001  2.2167882200000002 16.2700239199999999
  7.6791796400000001  2.2167882200000002 18.6212828899999998
  9.5989745499999994  5.5419705400000003 16.2700239199999999
  9.5989745499999994  5.5419705400000003 18.6212828899999998
