 H Si 
 1.0000000000000000
    14.5295791732167459    0.0000000000000000    0.0000000000000000
     0.0000000000000000   14.5295791732167459    0.0000000000000000
     0.0000000000000000    0.0000000000000000   28.7218310000000017
 H   Si 
   5  96
Cartesian
  7.0756970199999998  0.1796374400000000 18.0867929300000014
 12.9482228100000007  7.8248806399999999 15.5150974799999997
 -0.4615256100000000 13.2037594100000000 19.5206836499999987
 14.6729205599999997  6.5418869500000003 17.7844360899999998
  6.9679282999999996 13.3450923600000007 13.2498958499999997
  5.6311435899999998 13.0782078800000008 15.9649063200000008
  4.9508522499999996  1.4618773800000000 18.0173984999999988
 14.1930660599999996  4.5131949999999996  9.8637720200000008
  4.1150339499999999  3.3056719100000000 13.8937722200000007
 10.5465472699999996  5.9565615000000003 16.2652302300000002
 14.0300002199999998 13.1366099799999994 15.4675149300000001
 11.1364547900000002  9.9239947999999991 10.4841549500000006
 13.1789644900000003 13.4605143399999996 11.1810636500000005
  3.7315848900000002 10.5928419399999996 17.8246546399999986
  0.8479613000000000 12.5839769599999993 10.6387769500000005
 11.5309689399999993  6.0210739100000001 12.2960412600000009
  4.0049006299999999  3.3640845599999998 10.2133074500000003
  5.4335988300000002  4.7650933200000001 15.1329432100000005
  8.9371115900000007  0.4409582200000000 15.5949407999999998
  7.6022886800000000  7.5472562700000001 10.7300201899999994
 12.6025748800000006  2.1017872400000002 16.5165622200000008
  4.7273631099999998  8.1629942000000000 12.7562081099999993
  0.7228862700000001 11.0773826300000007 12.5015607299999996
  8.2449895400000006  5.9622629099999997 16.3197030800000000
  3.0944500100000001  4.4113059699999999 12.1083107099999996
  7.6324876399999999  4.1413766100000000 17.7036642200000003
  4.0114214199999996  9.4647771200000008 14.5969248300000007
  5.4240748999999999  8.8451923800000003 10.6120630600000005
  7.6431727199999999 13.7200867700000000 17.1000601299999992
  2.5458900199999999 11.1639091900000000 13.9834920199999999
 14.0335814499999998  9.0684912200000003 12.8021515800000003
 12.8705533200000009  1.2580925700000001 11.3358666499999998
  4.2011368800000000  1.0596262400000001 10.4651180600000000
  0.9949767200000000  4.5945327999999996 15.3524065800000002
  7.3716321499999999  5.5508282900000001 14.1545956099999994
  3.7859609000000001 14.2692296899999995 16.8716564899999995
  8.9014020800000004  9.4936466100000008 10.6430437900000001
 10.5270254800000007  9.3557756199999993 14.1083561900000003
  8.2093582600000001  5.2494665300000003 10.1490068499999992
 10.8133511400000000  4.7955840299999997 14.2674948500000003
  1.5214286800000001  0.2322026100000000 13.3279225300000004
  1.5141317800000000  3.3614728899999999 10.7293442599999995
  7.0353111999999998  7.7159156199999996 17.1296719099999990
 14.8387547000000009  5.0810636000000002 17.5086081799999995
  2.2163205700000002  8.8364210300000003 17.9340405499999989
  6.3719369300000004  1.5576013500000001 11.1378068999999993
 10.1298361600000000 13.7658007900000001 13.9503212300000001
 14.3724901799999998  0.5449794800000000 16.6645160099999998
 11.0121443299999999  4.8964995599999996 18.2882845100000004
 10.6056427000000006 11.5965840399999998 14.9779937099999998
  5.3961522500000001  4.9474497000000000 18.2170242000000009
  9.1998855099999997 13.1093008199999996 11.9172975500000007
  2.6630049800000002  3.0343425900000001 15.6818970899999997
 13.7989332299999994  5.4250862499999997 11.9674922899999991
 10.4077979000000003  4.3716243199999996 10.8246642600000005
 11.2844131300000008  1.2501298700000001 13.0576901799999998
 11.1000981000000003 13.7075270000000007 17.9877013800000007
  4.0925938799999999 12.4143509999999999 12.6244575999999995
  0.4070094600000000  1.9751954899999999 12.2726262899999998
  8.7606400999999998  3.7668301899999999 13.7075415899999999
  8.1689810000000005  9.4447188400000002 13.8415741899999993
  5.7467344400000000  1.5901889300000001 13.4139195499999992
  2.8597970199999998  6.6825465199999998 12.6397561100000004
  5.3471799300000002 10.7449533899999992 16.1048691400000017
  8.4829980000000003  0.6454477300000000 10.8717986900000003
 14.2082748100000007  3.7493129800000000 13.6004944600000002
  2.5735385000000002 12.5625460300000000 17.9110638100000017
  1.4063605200000000 11.8116340599999994 16.0193370900000005
  5.6312617999999999 13.7868224599999998 13.7580755499999992
 12.2049565199999996  2.9382048699999999 14.4127580099999992
 10.4800056999999995  1.2987437300000000 17.1738028100000015
  0.4213988400000000  9.7826032200000004 16.7486552099999990
  1.6977376500000001  6.6929451200000001 14.6989547900000002
  3.1643434099999999  7.8272114899999998 16.0973732200000015
 12.9668217899999991  3.9214056199999998 17.8621330600000014
 11.2253148700000001 12.1418475000000008 11.1668576999999996
  0.7092742200000000  7.2548019000000004 12.0119031900000000
  7.5382426100000002  2.1277160600000000 14.8392126799999993
 11.3092368000000008  8.1131681400000009 15.9584447600000008
  9.5661287900000005  2.4499249299999999 11.9534215800000005
  2.7625011499999998 13.9651033499999997 11.4905865600000006
  9.5611935100000007  3.1086790999999998 18.4760006499999996
  9.1274278599999992 12.5077213399999998 18.4653345999999985
  6.1021854199999996  2.8919516700000001 16.5154932000000017
 12.9130305900000000 10.4022890599999993 17.7099903000000012
 14.3466330000000006 13.1217233499999999 13.1848054500000007
 -0.0349480200000000  8.3153047299999994 14.9652938599999992
  7.4767975299999998  9.7469665899999995 16.1022372900000015
  3.7341846200000002  3.3595078500000000 17.7545791599999987
 12.2978827400000004  3.1444961100000000  9.9646558800000005
  7.8820363000000002 11.0749587500000004 12.0653684099999996
  2.0146010599999999  0.8127148100000000 15.6312083699999995
 11.7597086199999996  8.5435444999999994 12.2813799600000007
  5.6243784200000002 10.9668480299999995 11.5537908199999997
  5.0763365399999998  6.6176887999999998 16.5882345700000009
  6.4081260899999997  3.6838606800000000 10.1647109699999998
  7.0159312299999996  7.5408577000000001 12.9903768799999995
 10.9367922699999998  9.2566152699999993 17.9126001300000013
 12.2333054400000005 12.2211939399999991 16.5053893000000009
 13.3629162899999994 13.9790855100000009 18.4846570999999997
  9.4062153800000008 10.8235427499999997 16.9312416299999988
