 H Si 
 1.0000000000000000
    14.5722492106642658    0.0000000000000000    0.0000000000000000
     0.0000000000000000   14.5722492106642658    0.0000000000000000
     0.0000000000000000    0.0000000000000000   25.4183120000000002
 H   Si 
  23  57
Cartesian
  0.3363974600000000 10.0760661000000002 15.3131187099999995
  7.4510481600000000 11.8448784899999993  8.7703001300000007
  3.5178154099999999 15.7754588400000006 15.9318395800000001
 15.3869960999999993 14.0468193699999997 15.9939616600000001
  9.7857660299999996  4.0886178400000004 14.4721772699999995
 13.1536419700000007  7.9222803300000004 14.5605301199999992
 14.3543185500000003 15.5198700299999999 14.2132137000000007
  1.2846181500000000  5.8301962400000003 15.3804255100000002
  2.8337391400000000  8.5681929700000001 15.2390918499999994
  1.5198040399999999  6.0320838800000001 14.6788657800000006
  2.1718369900000001  9.8253241599999992 13.2567789600000001
 -0.9035326600000000  3.8704897800000002 15.2230065600000000
  5.7512404799999999 13.5332844300000001  8.9460846200000006
 11.5767384500000006 13.9157285300000009 15.6316597000000002
 13.1787881500000008 11.6800425699999995 14.9500056899999993
  1.9524605399999999  3.7732719000000001 14.6248774299999997
 14.3664706599999992  4.2533805700000000 13.2075514399999996
 12.0652716200000008  2.1117474500000002 13.6555702100000005
 13.5588743800000007  5.5919315100000002 14.5889453000000007
  2.4909165799999999 12.3710785699999999 16.0288785900000015
 -0.6530990400000000  3.1947083400000000 15.4087141699999997
 14.4475025899999991  1.6015258000000001 14.5603265499999992
  6.9725822600000003 11.8674996900000007 16.0671186800000001
  5.3547068400000004  4.0881017699999997 11.1246674199999998
  1.5918964300000000  0.4493381100000000 11.4991740999999994
  8.3448328299999996  9.9864293899999996 11.8588439399999999
  2.2645570799999999  6.6860827100000000 12.7273541399999992
 13.1944425400000007  6.7173526700000004 13.6979266299999995
  8.1883448899999998  6.6699254899999998 11.0531918699999991
  1.7300933999999999  2.7150671900000001 11.6572314400000003
 11.2939897699999996 11.3894953599999997 10.3746478000000000
  8.4456786699999995  4.0152402100000000 13.8056602300000009
  0.1015405300000000  6.9589830600000004 11.9022470899999995
  9.2269298400000004  1.1200197500000000 11.5653227399999992
  7.1263993399999999 13.8359956600000000 13.4675151700000004
 14.8194624699999995 13.7040413500000007 10.1278259199999994
 11.4102282600000002  0.8036928000000000 10.8189715799999995
  6.6320531200000001 12.6308502300000001  9.7201874600000000
  2.9256373500000001  8.6459672699999999 13.7631686099999992
 11.5106325399999996  9.3096735200000005 11.4551103600000008
 11.0562456600000001  6.3019964399999999 12.9072468100000002
 14.2366214400000004  3.6166197800000002 11.8650073700000007
  9.0160694899999996  0.6133579200000000 13.9290504399999993
  7.9495080099999997 13.7526947400000008 11.2766766599999997
  3.7456948300000001 12.8514840899999996 11.7166764499999996
 11.6647184599999996 13.6659360000000003 12.3301500900000001
  9.5152218800000004 12.0884579700000003 11.7411549100000006
 13.2244984199999998 12.4251413999999993 11.2663396500000008
  7.6073999800000003  2.2020170900000000 14.9813195599999993
  5.6083350699999999  6.5286537700000000 13.9789889100000000
  7.8247464000000004  6.2523933700000001 13.4384777000000000
  3.7098402500000001  1.2461303399999999 14.4645303900000002
  7.3868036200000002 11.8754476600000007 14.6558671399999998
  1.4743938299999999 13.0082803600000005 15.1611710100000003
  4.1059417399999996  5.1613583299999997 12.7900045000000002
  6.4468581399999998 10.4437333599999995 13.1293331999999996
  0.1261989200000000 10.9567253499999993 12.2673735500000003
 10.5438082600000005  7.2476627200000001 10.7967458199999999
  9.6535043700000003 11.5990578800000002 14.1263393799999992
  5.4048367600000002 11.3244321600000006 11.2334174400000002
  7.1838172699999996  8.6129230499999991 10.3887300699999994
  3.7773606399999999  0.3062348600000000 10.5361398299999998
 10.7310076300000006 13.6593159199999992 14.4467546099999993
  2.9014995899999998  3.2711811599999998 13.5884022499999997
 10.0691926899999995  9.3849758500000000 13.3735004100000001
  1.6899301099999999 12.0545358900000004 10.9335353400000006
 12.2498405399999992  2.4541925700000000 12.2126183499999996
  5.1440123699999996  1.8555145399999999 11.6288401799999992
  2.6047010099999999 14.0287443700000001 13.3896759700000008
 11.6446683899999996  5.4572335499999998  9.7386656800000004
  4.8845982799999996  9.0656266100000007 10.7119939899999999
  8.7427131500000002  3.3967609300000001 11.5529013400000000
  5.8958066100000002  1.1904536699999999 13.7570186799999998
 13.8206160899999997  5.3985717800000002 10.4703669099999992
 13.8173820500000009  9.0283145299999994 11.4287642100000006
 10.9141346600000002  4.2863915400000003 11.6483439000000004
  5.1064821000000000  8.5603659600000004 13.0365322599999995
  9.6406885199999994  7.3311112400000003 14.4668108699999998
  7.3820928300000004  4.6513301399999998 10.1603915499999999
 -0.0118489700000000 11.3077451700000005 14.5662059199999998
