 H Si 
 1.0000000000000000
    14.5722492106642658    0.0000000000000000    0.0000000000000000
     0.0000000000000000   14.5722492106642658    0.0000000000000000
     0.0000000000000000    0.0000000000000000   25.4183120000000002
 H   Si 
  23  57
Cartesian
  0.6858160000000000 10.2334999999999994 15.1385319999999997
  7.2287400000000002 11.3815000000000008 10.1609200000000008
  4.4683700000000002 14.2904999999999998 15.0458420000000004
 14.6113999999999997 14.5012000000000008 15.4183120000000002
  9.6232199999999999  3.3273400000000000 14.9925320000000006
 12.8773999999999997  8.2916100000000004 13.8254819999999992
 13.7248999999999999 14.1864000000000008 13.2122119999999992
  2.0082900000000001  6.3304400000000003 14.8996420000000001
  2.2810000000000001  8.2961200000000002 15.2299819999999997
  1.5746300000000000  6.5200100000000001 14.3335919999999994
  2.0922200000000002  9.3335000000000008 13.4707519999999992
  0.1492920000000000  1.9568000000000001 13.4900319999999994
  5.7839600000000004 13.5633999999999997 10.0001060000000006
 12.6036999999999999 13.4489000000000001 14.7798020000000001
 13.2743000000000002 11.1386000000000003 14.2503220000000006
  2.0588000000000002  4.1028399999999996 14.4373319999999996
 14.3143999999999991  4.2042099999999998 13.5492220000000003
 12.0715000000000003  2.1343899999999998 13.7949619999999999
 14.1660000000000004  7.1220800000000004 15.3449120000000008
  2.6652499999999999 11.6664999999999992 14.4948219999999992
  0.4814390000000000  1.6682800000000000 14.0857620000000008
 13.3742999999999999  0.3277910000000000 13.2107419999999998
  7.3813800000000001 13.3595000000000006 13.9134320000000002
  5.2354200000000004  4.1615599999999997 10.3641749999999995
  1.6525000000000001  0.7748150000000000 11.0999920000000003
  8.2866300000000006 10.7210000000000001 12.7272420000000004
  2.5104400000000000  6.6975100000000003 11.8900419999999993
 13.5086999999999993  6.9077299999999999 14.0181220000000000
  8.0358900000000002  6.9817999999999998 11.6766319999999997
  1.6363500000000000  3.0525199999999999 11.5173220000000001
 10.4498999999999995 10.7820999999999998 10.0400630000000000
  8.3994900000000001  4.1889300000000000 14.9559820000000006
  0.1953530000000000  6.8685999999999998 12.1536419999999996
  8.9694099999999999  1.1157400000000000 12.6805520000000005
  7.0308900000000003 14.2866999999999997 12.7486020000000000
 14.4921000000000006 14.3417999999999992 10.0000000000000000
 10.8268000000000004  0.8801520000000000 11.2698719999999994
  6.7513800000000002 12.7041000000000004 10.8594519999999992
  3.2221799999999998  8.4316899999999997 13.1027319999999996
 11.4532000000000007  9.3681900000000002 11.4741020000000002
 11.8656000000000006  5.3135000000000003 14.4087619999999994
 14.0637000000000008  3.6813199999999999 12.1139620000000008
  9.9497699999999991  0.7336720000000000 14.7388119999999994
  8.5313300000000005 14.1387999999999998 10.0785009999999993
  3.5511599999999999 13.1034000000000006 12.0365719999999996
 11.4822000000000006 13.2751999999999999 11.9531220000000005
  9.4381699999999995 12.3884000000000007 11.4900920000000006
 13.4055000000000000 12.4870999999999999 11.0705519999999993
  6.8318000000000003  2.4417200000000001 14.8578320000000001
  5.6590900000000000  6.2391500000000004 14.0336119999999998
  7.8403799999999997  6.3138100000000001 13.7868919999999999
  3.5939999999999999  1.5761300000000000 14.1662719999999993
  7.8003900000000002 11.3528000000000002 15.1031119999999994
  0.7594400000000000 13.4778000000000002 14.6876320000000007
  4.2740400000000003  5.2484099999999998 12.2001519999999992
  5.6131300000000000 10.6163000000000007 14.6740919999999999
  0.2808830000000000 10.8885000000000005 11.8482120000000002
 10.1301000000000005  7.4618500000000001 10.7681989999999992
 10.1471000000000000 11.5776000000000003 14.8270719999999994
  5.2476300000000000 11.6687999999999992 12.5747020000000003
  7.0017300000000002  9.0128199999999996 11.4392920000000000
  3.7762199999999999  0.1800080000000000 10.4320389999999996
 11.2363999999999997 13.4398000000000000 14.3551420000000007
  2.8856799999999998  3.6823299999999999 13.2983619999999991
 10.4048999999999996  9.5705899999999993 13.3942320000000006
  2.1735099999999998 11.6615000000000002 10.7549270000000003
 12.0420999999999996  2.5187800000000000 12.3982620000000008
  5.3749799999999999  1.8542500000000000 10.9252719999999997
  2.2498800000000001 14.4296000000000006 13.1763720000000006
 11.2079000000000004  5.4155600000000002 10.8440250000000002
  4.7513699999999996  9.5072299999999998 11.6698219999999999
  8.4498599999999993  3.4734699999999998 12.0992119999999996
  5.6238200000000003  1.4051499999999999 13.0728320000000000
 13.5237999999999996  5.5309200000000001 10.8299570000000003
 13.7728999999999999  8.8954000000000004 11.3099120000000006
 10.5363000000000007  4.2800900000000004 12.7029519999999998
  4.9763700000000002  8.3678600000000003 14.6659220000000001
  9.3623200000000004  7.8637400000000000 14.7292919999999992
  7.1516900000000003  5.4866299999999999 10.0137040000000006
  0.1274800000000000 11.2735000000000003 14.2266919999999999
