 H Si 
 1.0000000000000000
    14.5768472422990421    0.0000000000000000    0.0000000000000000
     0.0000000000000000   14.5768472422990421    0.0000000000000000
     0.0000000000000000    0.0000000000000000   10.1505125555075324
 H   Si 
  46  79
Cartesian
  4.2718200000000000 14.6631999999999998  7.3923300000000003
 13.0284999999999993  2.0514000000000001  9.2393099999999997
  2.5080800000000001  1.4124200000000000  1.8520500000000000
  2.6511999999999998  0.9176890000000000  4.2093600000000002
 13.9048999999999996  0.1681790000000000  0.5165770000000000
  1.6202000000000001 -0.3320670000000000  6.1252700000000004
  3.8542299999999998 12.3987999999999996  9.3828399999999998
 12.5378000000000007  5.0968999999999998  8.2953899999999994
  2.8144100000000001  0.9965480000000000  3.4649700000000001
  2.7790200000000000 12.6280000000000001  2.1227000000000000
  0.3101100000000000 11.2728999999999999  4.3527300000000002
  2.9032499999999999 13.3617000000000008  1.9659400000000000
  2.1420100000000000 11.9200999999999997  6.3499900000000000
 14.4108999999999998  2.6322700000000001  1.1584700000000001
 10.7782000000000000  6.7703899999999999  9.1202000000000005
  1.8557900000000001 12.0081000000000007  7.0358999999999998
  3.5451000000000001  0.2323650000000000  7.4894100000000003
 14.2980000000000000  1.5528900000000001  3.8430100000000000
 12.6776000000000000  0.7794940000000000  1.8995100000000000
 14.3313000000000006  5.3633199999999999  8.5408600000000003
  3.2589700000000001  1.6569300000000000  5.9494499999999997
  1.8250700000000000  1.7018200000000001  1.6815800000000001
 13.9665999999999997 14.7239000000000004 10.0000999999999998
  0.8204330000000000 10.6158000000000001  1.9777499999999999
  1.3572299999999999 -0.0295287000000000  6.7904999999999998
  2.7714900000000000 11.0418000000000003  3.8658600000000001
  4.1695700000000002 12.9609000000000005  9.7075300000000002
  2.7650899999999998 10.3377999999999997  7.4852299999999996
  3.2097400000000000 11.0259000000000000  4.5189100000000000
 12.6068999999999996 11.8765999999999998  0.6726930000000000
 11.7134000000000000 13.8211999999999993  5.1238799999999998
 13.6104000000000003 10.0853000000000002  2.3324099999999999
  1.2846299999999999 10.8823000000000008  2.4180799999999998
  0.4853990000000000  2.2109700000000001  8.0891000000000002
 14.0116999999999994  1.2375400000000001  4.4608900000000000
  2.7282000000000002  3.1540100000000000  9.1166800000000006
 13.7113999999999994 -0.1721720000000000  7.2614299999999998
  1.4696100000000001 11.5243000000000002 -0.1419880000000000
 13.0242000000000004 14.4296000000000006  7.5316400000000003
  3.6342900000000000 10.8084000000000007  1.5497700000000001
  0.9799490000000000  1.9365800000000000  7.6230900000000004
  4.5340499999999997  0.5651720000000000 -0.1321320000000000
  1.9034899999999999 11.8452999999999999  9.4677299999999995
 14.1270000000000007 11.2972999999999999  4.1360900000000003
 13.3897999999999993 11.8920999999999992  6.1528400000000003
  5.3236800000000004 12.6844000000000001  7.7877299999999998
  7.8690100000000003 13.0004000000000008  9.7290899999999993
  2.1628500000000002  5.2341199999999999  6.5137099999999997
 14.5174000000000003  5.0793699999999999  5.5454600000000003
  0.7510950000000000  7.6487600000000002  0.4726280000000000
 11.1835000000000004 11.0617999999999999  4.1661999999999999
  8.4486799999999995  3.6368299999999998  1.5480700000000001
  7.6403299999999996 10.7891999999999992  4.6574799999999996
 14.1501000000000001  7.4599900000000003  6.1830699999999998
 12.4161000000000001  8.8493300000000001  7.3024899999999997
  8.5577100000000002  1.0108699999999999  7.6634000000000002
 10.1806000000000001 13.1830999999999996  9.1562099999999997
 12.0937999999999999  4.9740599999999997  1.4942100000000000
  3.9938899999999999  4.5862800000000004  5.2998200000000004
  5.7417400000000001  1.7717799999999999  3.7516900000000000
 13.3667999999999996  8.7198899999999995  9.6352200000000003
 12.3777000000000008  4.1239900000000000  5.4639699999999998
  7.5717999999999996  7.4879199999999999  1.3499800000000000
  6.4491800000000001  6.5354000000000001  6.7750300000000001
  0.5752060000000000  5.5177800000000001  9.7696900000000007
  8.5434099999999997 14.3887999999999998  5.6113000000000000
 11.2330000000000005  0.9079990000000000  2.2438400000000001
 10.5084000000000000 12.8743999999999996  2.8364600000000002
  8.7871799999999993  1.2146500000000000  1.6379100000000000
  9.6491699999999998  6.0402899999999997  4.2963199999999997
  7.8479099999999997 11.2820999999999998  1.2395900000000000
  7.6774399999999998  0.6215920000000000  9.7683199999999992
  9.2976600000000005  7.8914499999999999  2.9723199999999999
  4.4676200000000001  8.5937400000000004  3.4627699999999999
 13.2630999999999997  7.5738700000000003  4.0470800000000002
  3.3145300000000000  8.9299099999999996  7.6175600000000001
  5.8228900000000001  6.7521100000000001  2.8646900000000000
  7.5438299999999998  0.3249020000000000  3.4549799999999999
 11.1084999999999994 12.0772999999999993  0.7448110000000000
  3.0194600000000000  8.0986700000000003  9.9778699999999994
  7.8910099999999996  3.3434900000000001  7.1103399999999999
 11.9055999999999997  6.9697600000000000 -0.0073767900000000
  6.3975400000000002  9.4921399999999991  0.4835610000000000
  4.4870200000000002  2.4612300000000000  5.9732000000000003
  6.1132299999999997  5.4532900000000000  4.9035299999999999
  5.8810900000000004  5.3510999999999997  8.7419399999999996
  7.2863800000000003  3.5538400000000001  4.7732200000000002
 11.4377999999999993  4.3338599999999996  7.6978600000000004
  8.8449700000000000  6.4848200000000000  6.4833100000000004
  6.8280500000000002  9.8639899999999994  8.3670700000000000
  5.4826199999999998 10.0137000000000000  4.9640800000000000
 11.8781999999999996  5.7792100000000000  3.8257800000000000
  9.2646200000000007  5.0249400000000000  8.2030100000000008
 11.0673999999999992  8.3623499999999993  1.6872499999999999
  4.0450699999999999  5.9513199999999999  9.7594499999999993
  8.3072599999999994 12.2074999999999996  6.3006700000000002
  9.5302799999999994  9.4494699999999998  4.6009099999999998
 10.8363999999999994  0.5994860000000000  8.0302600000000002
  5.5221700000000000  8.6596200000000003  6.9560300000000002
  2.9544600000000001  5.1725000000000003  3.3859800000000000
  5.5838999999999999  1.6181700000000001  9.9489400000000003
  9.1771499999999993  9.7927199999999992  8.3716200000000001
  9.2667300000000008  3.8015699999999999  3.6875499999999999
  5.6423899999999998  2.9747800000000000  1.7281800000000000
 10.1027000000000005  8.4728300000000001  6.7563700000000004
  7.8461999999999996  5.5713400000000002 10.0579999999999998
  8.1639999999999997 12.5869999999999997  3.1502300000000001
 10.7620000000000005  3.0048599999999999  1.0822099999999999
  5.6706799999999999  3.1187700000000000  8.0030400000000004
  4.4945899999999996  5.1190600000000002  1.7886500000000001
 14.3361000000000001  4.0709799999999996  1.3216600000000001
  2.5214300000000001  7.4078099999999996  3.8992399999999998
  6.6680900000000003 12.1632999999999996  8.0126899999999992
  2.5184799999999998  4.6077100000000000  8.7590599999999998
  0.6631890000000000  4.9125699999999997  3.2308400000000002
  9.9031500000000001 10.0419000000000000  0.5104300000000001
 10.8193000000000001  0.4659830000000000  5.7197399999999998
 12.1537000000000006 11.0182000000000002  6.2286700000000002
 11.6936000000000000  2.3006600000000001  9.2079799999999992
 10.2843000000000000 11.6686999999999994  7.4021100000000004
  1.8588600000000000  7.4802799999999996  6.2458900000000002
  0.5715650000000000  7.2478199999999999  2.6576399999999998
  4.3130199999999999  9.4058299999999999  1.3113400000000000
 11.0838000000000001  2.3550700000000000  4.3163299999999998
 12.4901000000000000  9.4464000000000006  3.1486999999999998
