 H Si 
 1.0000000000000000
    14.5445998864130264    0.0000000000000000    0.0000000000000000
     0.0000000000000000   14.5445998864130264    0.0000000000000000
     0.0000000000000000    0.0000000000000000   26.4208731599999957
 H   Si 
   8  67
Cartesian
  0.3050536400000000 12.5531810400000001 17.4341950899999993
  0.3851521800000000  8.3039791899999997 12.6581706199999999
  8.8284786900000007 10.1055002100000006 14.3612443200000008
  9.9947435799999997  3.3800284100000000 10.3041252399999994
  9.4306355699999997  3.8762506299999999 16.8136178299999983
 13.4411799900000002  7.5262804000000001 14.5840633799999999
  0.3417378200000000  5.3904855899999999 13.3269486100000005
  3.5006074900000002  1.5977861600000001 15.9913818299999999
  2.6302955899999998 14.1233402800000007 13.9229054899999998
  4.1627957200000001  8.1135716999999996 11.7864644700000003
  2.5816945599999999  6.6349190199999999 15.0473304399999996
 12.6461295499999995 10.3769372200000003 13.0387308700000002
  8.5455389999999998  5.6676995200000002 13.3419513700000003
 14.0011124999999996 13.5849842699999996 12.4439916000000004
  5.1977306700000003  6.0122770499999998 11.0299860600000006
 10.8952120000000008  8.9836530700000008 12.3326621299999992
  3.1615877200000000 13.3511623900000007 11.7252570699999996
  9.6113373400000004 10.3104167199999992 10.9231407699999998
 -0.1712251800000000 12.0147640199999994 16.1252401899999995
  6.4716183500000000  2.4030689399999998 16.6290921900000015
 10.1777377100000006 12.5724032000000001 11.1872469300000006
 11.7280891900000004 13.8485339100000004 12.4737357699999993
  6.3057237800000001  7.9639682199999999 14.7550351699999993
  6.7039900599999998  0.6218927300000000 11.2146166800000007
  5.4801910899999999 13.4276730700000009 12.1961444100000005
  8.4804841000000000  7.1667880500000001 15.1439395599999997
 13.4886526999999994  9.0033347900000003 14.7665172899999995
 14.2486036600000006 11.4306648899999992 11.6628698899999996
  5.5584053000000004  4.1147951500000000 15.2056818899999993
  7.3303484799999996 10.0530689300000002 11.1823459799999991
  4.8261861399999999 13.5496596999999994 14.5248057999999993
  0.7294607400000001  9.8900462900000008 15.8857024800000008
  3.4470351300000002 10.0344926799999996 13.1956103700000007
  8.6919511000000007  2.9198125799999999 15.9634628400000000
 12.0371230600000008  1.9891776500000000 15.4160783400000003
  9.9376457100000000  1.2353294500000001 14.9610061900000009
  8.8283579099999994 14.3748798200000003 11.7248768499999994
  2.5067379800000000  0.5995063100000000 10.3700622500000001
 10.7509167300000001  5.0775697299999996 12.8908948900000002
  6.5221172799999998  0.5576826700000000 15.0989274299999998
  0.2343705900000000  2.9245643600000002 11.4165080000000003
 12.2471691699999994  4.0549459299999997 14.3777913300000009
  5.1955734600000003 11.2457826500000007 14.3376232699999999
 13.5867026699999993  6.3385223100000001 10.7411376500000006
  2.7388561000000000  8.9864322699999999 15.1637967800000002
  0.9881793600000000  7.4934703000000003 11.5361645900000003
  0.3673327400000000  0.6645292400000000 11.1097924799999994
  4.8370899200000004  6.2451378899999996 15.2079939300000007
  2.4624846400000000  9.1446670300000008 10.5103473800000007
  2.7531537899999998  6.4195095799999997 12.7242166000000001
  7.5905570200000003  3.7378261600000000 14.1183840499999995
 11.9652449799999996 12.0731487099999999 16.2640566799999995
  0.4115875800000000 13.7049656500000001 14.6070725199999991
  2.8533957200000000  1.7929595400000000 14.6500213600000002
  4.9733857300000004  9.5609169800000000 15.9096789600000008
  3.6732285199999999  4.4340359600000001 11.8674455900000009
 10.4520936899999999  1.2742304799999999 12.6081816999999994
  4.4455845199999997  2.9978041499999999 13.5132780799999992
  2.4115627800000001  2.9361484700000000 10.5842325200000005
  6.4549800900000003  8.2270055600000003 12.3264668200000003
  8.8700819200000005 12.7203074600000008 13.4889962099999998
  6.8842857000000004 11.6265534699999993 12.7780822000000001
  6.4773048299999996  1.9178716800000000 13.1318514499999992
 14.1259830199999996  1.1612796400000001 15.4672203800000005
  8.5517933500000005 13.9622984900000002 15.4342353800000005
  2.0272564499999999 11.1789862000000007 11.7106807800000006
 11.6799499099999995  6.8837771800000001 11.8030480299999994
 10.9951793000000002  3.2963309399999998 11.4022542399999995
 14.3934239999999996  3.9894910100000001 13.5036497700000009
  7.4610173299999998  6.3591291300000004 11.3697811200000007
 11.5466332299999994  9.8323751500000007 15.7550709399999995
  9.7954387000000001  8.9584289399999992 14.4542701499999993
 13.0648209899999994  4.0911515600000001 10.4550750400000005
 11.2796194100000005 12.1465777199999998 14.0281743199999998
  0.9542963400000000  2.9385355600000000 15.2221905100000008
