 H Si 
 1.0000000000000000
    10.8599999999999994    0.0000000000000000    0.0000000000000000
     0.0000000000000000   10.8599999999999994    0.0000000000000000
     0.0000000000000000    0.0000000000000000   40.3624999999999972
 H   Si 
  32 128
Cartesian
  3.8857952577652890  1.5442047414715137  9.8567957094931486
  2.4356194518904362  2.9943805475924883  8.7421873108392987
  1.1707952576357492  4.2592047415100023  9.8567957096887344
  5.1506194530588800  0.2793805482992094  8.7421873104889674
  9.3158948305844955  1.5441051701277970  9.8568674488311991
  6.6008948299762311  4.2591051694660234  9.8568674488184946
 10.5807387324589737  0.2792612678297954  8.7421908001999835
  7.8657387327155854  2.9942612682221901  8.7421908003780242
  0.0598128619132006  5.3701871375311461 30.4990945091948547
  1.5138927186023321  3.9161072816749072 31.6201882041709652
  4.2288927193468036  1.2011072822744497 31.6201882042244371
  2.7748128624949691  2.6551871384623489 30.4990945095955794
 10.7191823346185462  0.1408176642577720 30.4990770539644132
  9.2651069477111001  1.5948930510298271 31.6201859395979845
  8.0041823358042681  2.8558176650224629 30.4990770529641502
  6.5501069483766692  4.3098930502535335 31.6201859398087990
  1.1708948306127926  9.6891051700154875  9.8568674485808749
  3.8858948299869667  6.9741051692299791  9.8568674486336807
  2.4357387317583203  8.4242612666847929  8.7421907999233550
  5.1507387323472607  5.7092612671624003  8.7421907997488422
  9.3157952581763954  6.9742047421686886  9.8567957097963177
  7.8656194526516465  8.4243805477332234  8.7421873102673242
 10.5806194516192864  5.7093805473288466  8.7421873109804089
  6.6007952583361096  9.6892047422271919  9.8567957096151328
  1.1201069481571664  9.7398930513201751 31.6201859401438448
  2.5741823359000238  8.2858176653667730 30.4990770545130658
  5.2891823354573377  5.5708176645725169 30.4990770534048323
  3.8351069482211586  7.0248930504569245 31.6201859397625569
  8.2048128629155972  8.0851871386556180 30.4990945097284545
  9.6588927192620844  6.6311072808867797 31.6201882034384170
  6.9438927189835669  9.3461072812415349 31.6201882042013267
  5.4898128621344613 10.8001871380381527 30.4990945103296163
  1.2805479231559160  1.4344482337641211 11.3959737067347753
  3.9955517661384654  4.1494520765938487 11.3959737064588218
 10.7827666274938743  2.7922423708156425 12.7517268387686116
  1.3262117003474694  4.1037882996871664 14.1025625538942805
  2.6377666276236571  0.0772423707280746 12.7517268382834406
  4.0412117003772332  1.3887882995728804 14.1025625536511878
  6.7105517663882912  1.4344520768365652 11.3959737066284177
  9.4255479231637604  4.1494482337666803 11.3959737070387224
  5.3527576291529151  2.7922333724901520 12.7517268384270466
  6.7554858992664144  4.1045141007625503 14.1025806441382358
  8.0677576292854116  0.0772333724798232 12.7517268384937825
  9.4704858993559515  1.3895141006335476 14.1025806443776140
 10.8285175459266032  0.0314824542005642 15.4522161092161525
  1.3146040797243497  1.4004011739854465 16.8019870559872793
  2.6843306335971269  2.7456693664843708 15.4522109364571367
  4.0295988260464899  4.1153959204043993 16.8019870559620301
 10.8169368480889840  2.7580600552430194 18.1522998757641467
  1.3150683132953356  4.1149316867961234 19.5031470630898873
  2.6719368482114096  0.0430600551035925 18.1522998759819458
  4.0300683132827118  1.3999316867778704 19.5031470632190391
  5.3993306335649480  0.0306693664821688 15.4522109363022082
  6.7445988259659062  1.4003959204625662 16.8019870558004989
  8.1135175457771105  2.7464824543279600 15.4522161091439738
  9.4596040795235243  4.1154011741681238 16.8019870558670661
  5.3869399449036370  2.7580631518586114 18.1522998759168424
  6.7502449419552430  4.1097550580952511 19.5031382919915899
  8.1019399448225329  0.0430631519390635 18.1522998757533500
  9.4652449419104752  1.3947550581062300 19.5031382918540110
  8.2768702471980653  2.5831297531566664 10.1017130685075660
  0.1317737255863608  5.2982262739596901 10.1016953877082933
  5.5618702468483692  5.2981297528632494 10.1017130681495271
  2.8467737256074033  2.5832262740992382 10.1016953876258615
 10.8231358368782473  0.0368641630812525 20.8540633489343215
  1.3168200696039782  1.3981773785881009 22.2049216590248548
  2.6722702626978081  2.7577297373553771 20.8540653452055942
  4.0318226213647375  4.1131799304322119 22.2049216591051604
 10.8193094034276136  2.7556922581674312 23.5552608039591362
  1.3364292835877991  4.0935707163365160 24.9050192839551165
  2.6743094032095573  0.0406922581137400 23.5552608038380384
  4.0514292834810908  1.3785707163500964 24.9050192837184845
  5.3872702627390598  0.0427297373044412 20.8540653452265801
  6.7468226214714058  1.3981799303696731 22.2049216591783747
  8.1081358369720196  2.7518641630326361 20.8540633489878218
  9.4618200696672030  4.1131773784956769 22.2049216591638263
  5.3893077417970181  2.7556905967643530 23.5552608039251865
  6.7276699049504360  4.1323300951735469 24.9050249880780648
  8.1043077418290999  0.0406905967230724 23.5552608040993654
  9.4426699050593914  1.4173300951111345 24.9050249881232624
 10.7976434669601016  0.0623565330454722 26.2549028414633518
  1.3169896284688793  1.3980126446528283 27.6079567427012833
  2.6964631731203959  2.7335368267237454 26.2549002705779593
  4.0319873553733654  4.1130103714064505 27.6079567423607735
 10.8194873232482731  2.7555132059412979 28.9632148931427373
  2.6744873233879147  0.0405132063874385 28.9632148934150280
  5.4114631729797100  0.0185368267550991 26.2549002704744439
  6.7469873553301261  1.3980103713306502 27.6079567422497512
  8.0826434669851501  2.7773565330846259 26.2549028413043075
  9.4619896284585341  4.1130126446835398 27.6079567426321297
  5.3894867940233544  2.7555126765279634 28.9632148926726671
  8.1044867936463731  0.0405126763654487 28.9632148927847162
  6.9638760916482401  3.8961239083501087 30.2607116435700476
  9.6788760911832536  1.1811239081684977 30.2607116437094845
  1.1001183643033501  4.3298816355855596 30.2607178811113471
  3.8151183645299054  1.6148816360683391 30.2607178812339228
  1.2805517661888441  6.8644520765118022 11.3959737066619358
  3.9955479232455420  9.5794482337094724 11.3959737060879132
 10.7827576291405300  8.2222333725026377 12.7517268383863431
  1.3254858993555900  9.5345141006889076 14.1025806440774915
  2.6377576292109297  5.5072333723737250 12.7517268385263307
  4.0404858993741781  6.8195141007084450 14.1025806441144681
  6.7105479231245271  6.8644482338115287 11.3959737061732920
  9.4255517663109281  9.5794520768026370 11.3959737064223621
  5.3527666274386991  8.2222423708861623 12.7517268381780209
  6.7562117003674507  9.5337882995466376 14.1025625535961989
  8.0677666272800401  5.5072423710961598 12.7517268384318072
  9.4712117002374150  6.8187882997954699 14.1025625536327706
 10.8293306333652968  5.4606693667128958 15.4522109363923441
  1.3145988259019770  6.8303959205760876 16.8019870558272224
  2.6835175457546936  8.1764824542130832 15.4522161090644836
  4.0296040795786938  9.5454011740281377 16.8019870557928961
 10.8169399448698691  8.1880631519772802 18.1522998759154000
  1.3202449419677096  9.5397550580725223 19.5031382920455911
  2.6719399447894494  5.4730631519965431 18.1522998757133891
  4.0352449418970382  6.8247550580913092 19.5031382918736504
  5.3985175457549959  5.4614824541893485 15.4522161091599255
  6.7446040796097870  6.8304011739894657 16.8019870558739690
  8.1143306335190424  8.1756693665466926 15.4522109364090898
  9.4595988260294011  9.5453959204532755 16.8019870558711268
  5.3869368481139501  8.1880600551960114 18.1522998758239673
  6.7450683132923146  9.5449316867751666 19.5031470630837127
  8.1019368481169973  5.4730600551817821 18.1522998759224308
  9.4600683132932382  6.8299316867588802 19.5031470631868267
  8.2767737257141469  8.0132262744546860 10.1016953873343542
  5.5617737259531932 10.7282262744209085 10.1016953873571289
  0.1318702471908850 10.7281297530393740 10.1017130683509624
  2.8468702468354965  8.0131297526015111 10.1017130682015566
  8.1044873233231165  5.4705132063952782 28.9632148929276632
  1.3168226214735952  6.8281799303785879 22.2049216592649330
  2.6781358369905730  8.1818641630250806 20.8540633490455569
  4.0318200697005153  9.5431773785298031 22.2049216591754330
 10.8193077417241454  8.1856905967052587 23.5552608039851741
  1.2976699048750338  9.5623300950755468 24.9050249881289787
  2.6743077418283625  5.4706905966340713 23.5552608040935958
  4.0126699049605898  6.8473300950699212 24.9050249881557164
  5.3931358368849578  5.4668641630911630 20.8540633489556946
  6.7468200696001528  6.8281773786129412 22.2049216590644001
  8.1022702626839358  8.1877297373730595 20.8540653452124332
  9.4618226213474745  9.5431799304647136 22.2049216591507204
  5.3893094033704951  8.1856922581218665 23.5552608040214864
  6.7664292835805782  9.5235707163789076 24.9050192839072508
  8.1043094033065355  5.4706922581860455 23.5552608038457052
  9.4814292835347231  6.8085707163177691 24.9050192838603159
 10.8414631731050459  5.4485368267562269 26.2549002705665409
  1.3169873555016278  6.8280103713145364 27.6079567424006918
  2.6526434670050558  8.2073565331096852 26.2549028414017052
  4.0319896283562944  9.5430126448310428 27.6079567427987307
 10.8194867943151625  8.1855126765925306 28.9632148929196589
  2.6744867939064361  5.4705126763768064 28.9632148928527791
  5.3676434669648829  5.4923565330961521 26.2549028413853875
  6.7469896283187998  6.8280126449133025 27.6079567425881365
  8.1264631731630796  8.1635368268354931 26.2549002705598866
  9.4619873554315781  9.5430103713661563 27.6079567425387893
  5.3894873232566010  8.1855132062873164 28.9632148932709015
  4.2488760915777064  6.6111239081325337 30.2607116436925203
 10.8172702627469661  5.4727297373045900 20.8540653453109606
  1.5338760917494834  9.3261239084899721 30.2607116442534654
  9.2451183645144734  7.0448816358889870 30.2607178808291586
  6.5301183642355181  9.7598816358009568 30.2607178814309208
