 H Si 
 1.0000000000000000
    14.5848868248766266    0.0000000000000000    0.0000000000000000
     0.0000000000000000   14.5848868248766266    0.0000000000000000
     0.0000000000000000    0.0000000000000000   29.2821350000000038
 H   Si 
  38  96
Cartesian
 10.7749355799999993  2.9412282900000002 14.3403314000000002
 11.2258336100000005  5.1839149100000004 16.8570245999999990
  8.7146249000000005  9.2008577900000006 16.8336597400000016
 11.1418216099999992  4.0121187400000000 19.2867367499999993
  8.9722743000000005  3.8955815600000001 13.0140861599999997
 10.5769060800000005  0.1022654100000000 18.4224120499999984
 11.3147452600000005  4.9531045799999998 12.2471622300000007
  8.8782461799999997  4.1648828199999999 13.7007622500000004
  7.0318865300000004  5.8569587600000004  9.8852229299999994
  9.7722144899999996  5.9387763400000004 18.4398787599999991
 12.9371467599999992  3.6750623400000002 13.4617860500000006
 11.3080518399999992  4.4488203000000004 16.8490870199999989
  6.4983039199999997  3.0416840999999999 19.7357534799999996
 11.0972761400000000  5.0893319799999999 14.4436907600000009
 11.7735919100000004  3.6892337500000001 19.0582293400000005
  9.4459683099999996  7.2992882100000003  9.9746483599999998
 11.0256563900000000  8.2043069299999996 19.3143447700000017
 10.0755064500000007  7.1455930600000004 12.7088245600000000
  7.1209629500000000  2.6079305700000002 19.5341856699999994
 10.5294647799999996  5.3747009400000003 14.8767530899999993
  9.1101426100000005 13.7634465099999996 14.6937189900000007
 11.8645837400000005  6.6767654700000003 10.7111344899999992
 11.4299002200000004  6.8696966300000000 17.3598231500000004
  9.4041755899999995  7.2843300099999997 10.7182159800000001
 11.4722753900000001  2.4978568100000000 16.8058372700000014
 12.5841184199999994  3.1373191999999999 13.0711455399999998
 -0.9825610200000000  4.4060650800000003 14.6702553699999996
 11.1950525400000007  8.6110900099999999 11.4323951099999999
  9.6976689999999994  3.5842222499999998  9.4340339300000000
 13.3824071900000003  5.2593801400000002 18.4833098599999985
  8.6247460700000005  4.8342560399999996 20.2544015699999989
  8.6994433400000002  4.8980206300000004 11.2588423500000001
 -0.0990443800000000 12.8290240299999994 13.9170640900000002
 12.9239693700000000  6.5410458900000004 15.8163035199999999
  7.5497887199999996  5.0460847800000002 18.1128934699999995
  9.3511887399999996  3.5065087899999998 18.3018945200000012
 10.7735585000000000  9.1734642700000002 11.1632441799999995
 13.2524819199999992  8.7941256100000000  9.9553057500000008
  1.5792139000000001  1.3885464599999999 18.7161295400000007
 13.1592853499999993 11.6605359899999996 11.4945814700000000
  6.2134428000000002 13.6447612599999992 11.3308539300000000
  5.2475312000000001 13.8330550599999995 18.8234199699999998
  7.2117800000000001  1.1783492799999999 11.6895129499999992
  4.0315156800000000  4.6359426499999996 13.1453185099999992
  8.8585120800000006  1.7505308500000001 18.7926770300000001
  1.5685713200000000  6.6182945999999996 15.7075715099999993
  2.4920223699999999  3.3181441000000000 15.9647828100000009
  2.7335549600000002  5.5792426800000001 19.0209789100000002
  2.0362401200000000 13.0504027600000008 16.3957030800000005
  6.8652818199999999  5.2003085599999999 15.0952178799999999
 13.5950884300000006 11.1365216300000007 17.3300130000000010
  2.5529508299999999  0.9569867500000000 13.3140962999999992
  6.4857415400000002 10.1766100300000009 18.5235014500000013
  7.7441285400000002 11.2178638599999996 14.2260339699999996
  1.0547742000000000 10.8283625400000005 16.2524545700000012
 13.7888014600000002  4.2203483600000000 10.3452438099999995
  4.2573464999999997 10.9197567000000006 12.9272422000000002
 12.7523806000000004  0.5618016100000000 13.5479764800000009
  7.7759633900000003  9.2354423000000008 12.8625414700000000
  6.1611330700000000  1.4797412800000000 13.7235335799999998
  6.6099145200000002  7.7397300199999997 18.8249837000000007
  6.4613714399999997  2.7813536999999999 15.6335337400000007
 10.2844532700000002  2.2829501900000002  9.8377708599999991
  4.5071995700000000  8.8608694600000000 14.0141609299999992
  3.4173387000000002 14.5292664400000007 15.1861719100000006
  1.7422090699999999  9.0608872799999993 11.0018694099999994
 12.4802681000000000  2.4034274600000001 10.1970989900000006
  4.8317008200000000 10.9211027200000004 10.6122821900000002
  3.8635951799999999  1.0566981900000001 18.4594017500000014
  6.0949060299999998  5.6780542599999997 12.8749028699999997
  9.5144386700000005 11.9602942900000002 12.7352321199999992
 10.6679102599999993  1.5584411800000000 13.8126322500000001
 14.0108542099999998  6.5757698299999996 13.0132147899999993
  4.2779411800000000  2.3632762899999999 12.6455401799999994
  0.9132714100000000  1.3081570400000000 10.5276644299999997
 14.1200127099999992  1.5050856800000001 15.2281675500000002
  7.7210273999999997 11.6149308199999997 16.7141899999999985
  0.4500561300000000 14.7304589999999997 16.9652493000000000
 11.6835356899999994 11.4453424600000009 13.3938159900000002
 13.5188490500000000  8.7894037600000008 13.2983091499999997
  6.4190647099999998  2.8712876100000000 10.2573997400000003
  3.8524130699999999 12.4460162400000005 17.6827347500000016
  0.5806007600000000 12.5838185500000002 12.3406321699999992
 10.2478868399999996 13.7088591300000004 11.4384006399999993
  5.6162901999999999 14.0691753700000000 14.8711154800000003
  3.3874163400000001  5.2797382199999996 15.2876883800000005
 13.1285026299999998 13.3568310799999992 16.8982105800000006
  9.5707117299999993  8.0037115300000004 13.8177517000000005
 11.8230858399999992  8.0996475300000004 18.0750447200000011
 14.0606290699999992  4.3930900900000003 17.4766219300000003
  4.1343617999999998  3.2012396200000000 10.4509445000000003
 11.5162406300000004  9.3485855699999991 14.4253384300000000
  1.1527087300000001  2.6662080000000001 14.0796122599999993
  1.5478241100000001  6.9639711699999998 12.0554685999999993
 13.9501570400000006  9.5101650099999997 11.0479646500000008
  6.9969140799999998 11.7014546199999998 10.3345372100000006
  9.9857169799999994 11.6416799999999991 17.2897355200000007
 10.8648024900000006 13.7950742200000001 17.2239057799999991
  5.7861185099999997  7.9594722400000002 12.3309469499999995
  7.9255439299999999  1.2394639199999999 16.7135104299999995
 12.1924198500000003 13.3529634999999995 10.2564621900000006
 14.0511423999999998  5.6800534499999999 15.3385926599999998
  2.3340351099999999  7.9729031600000004 14.0378345400000004
  8.8406496299999997  4.8724168399999996 18.8045635100000013
 12.9215769900000002 13.0583078300000004 14.5585443100000003
 12.4534307799999997  5.6321595300000000 11.5791512000000001
  2.0908494200000001 14.1606624599999993 11.5067839400000000
  4.1724473599999996  8.7058462799999994 10.4743718099999992
  8.7896183299999997  6.5114904899999999 15.4971958599999997
  9.6761483199999994  0.3088360600000000 15.4977585100000006
  7.2432131799999997  4.8839075300000001 10.9899659300000003
  5.1685562999999997  6.2312159300000003 16.4181547300000013
  4.3489040299999999 10.1800337800000005 17.6291797499999987
  2.1423295100000002  9.5412648299999994 17.9443625100000013
  9.5216837299999995  1.2649351300000000 11.7641141900000008
  2.6256450500000001  4.9295970999999996 11.3702369399999998
  6.6985726400000001 13.8050198799999997 16.9456463200000016
  5.4295849799999996  8.6153060000000004 16.1395361100000017
 11.5931593900000003 10.0107786700000005 16.7286686399999986
  0.9085124999999999  3.3615132800000000 11.7064804999999996
  1.5357039200000000  7.2847369200000003 17.9330863100000002
 14.0789480400000002  8.1706065799999994 18.6462527000000016
  8.7884261499999994 10.4346626800000006 11.1000743600000007
  5.9504298000000002 12.4315489899999996 13.3503668700000002
  1.5976967600000000  3.6839807599999999 18.0955053899999996
 12.9505441399999999  2.4444701000000002 16.9878475400000006
  7.6751297899999997  8.1186135400000001 16.7656471300000014
  1.9868233799999999 10.8161370500000000 12.5706824699999995
  4.0498942299999996 13.1822029999999994 10.5531892799999998
  5.0670872400000002  5.8741227900000004 18.7028329000000006
 13.3775678300000003  0.5709278500000000 11.1942683699999996
 14.8231706299999999 10.3137188500000008 19.1847498099999996
  0.8645413300000000  9.7370184700000006 14.2361961000000008
  4.2734718699999998  1.8936090500000000 16.3599635899999996
