 H Si 
 1.0000000000000000
    14.5388263617727471    0.0000000000000000    0.0000000000000000
     0.0000000000000000   14.5388263617727471    0.0000000000000000
     0.0000000000000000    0.0000000000000000   28.9237407299999987
 H   Si 
  10  93
Cartesian
 14.0421297500000009  2.1490562799999999 16.1811518599999999
  8.6409065599999995  6.3778465100000004 16.0924024000000010
 13.0908114100000006  4.9832190000000001 19.3876696200000005
  7.1924868699999998  4.2738883100000002 14.8737673000000008
  9.9390788299999997 13.4812702200000007 11.6961922400000002
  6.9207171799999996  0.2226414700000000 14.6258228599999995
 13.5841508300000005  7.9002644000000002  9.3692422000000004
  8.4755858300000000  1.0276978200000000 12.7108633300000005
  5.0991199299999996  7.7337077599999997 14.6663339799999992
  0.2738779400000000  8.2519308799999997 18.7023622399999994
 13.4758645999999995 10.2337884799999994 13.8077809699999996
  8.7100426700000000  7.0074400499999996 10.6573654199999996
  3.2583635200000001  4.3564325300000002 15.4613962600000008
  2.2162060399999999  2.4230105399999999 14.7653609899999996
 10.0762186299999996 12.1632242999999995 17.8107784500000008
 10.3381450699999995  8.4593548500000004 11.5238359500000005
  3.2121003600000000  3.4908170100000002 18.7605305800000011
  9.3889611199999994  7.1851308800000000 14.8754704800000006
  7.6876939200000001  6.7637092000000001 13.2927036600000008
  3.3941131400000000 13.6717313800000007 12.9651550300000000
  5.0955846100000004 12.0410617400000000 12.4704965100000003
  7.9331079300000003 12.8484986200000009 18.2453834999999991
  7.7946112100000002 13.5690485800000005 14.4053235300000004
 13.6835376300000000  4.2184712500000003 18.2668165400000007
  3.0013989699999999  8.0899608999999995 16.9402814699999986
 13.6515636800000006  6.8566757300000001 10.4086704999999995
  0.7195253000000000  1.2705301800000000 16.1122655200000011
  4.7579276899999998 12.6266805499999997 16.8869296200000001
  6.5481493000000004  9.3182232400000000 17.9075990000000012
  3.9556836000000000  5.2991773000000002 13.4501024699999991
 10.7769700900000007 10.6276131399999993 10.6064106999999996
  9.6909765900000000 10.1098914499999992 13.0716610299999996
 -0.0825700900000000 13.0775439900000006 18.0381256699999994
  7.3505129000000000  0.8245983000000000 11.7363067599999997
  4.7095269699999998 10.8149530800000004 10.4660365899999999
  8.5905170599999998  8.1603659999999998 18.4968279299999985
  4.7320279100000002  3.7031166899999999 11.8717793399999998
  8.3344257600000002  5.0393791600000002 11.8016926000000009
  4.6483690099999997  0.4425773700000000 16.6522334699999988
  6.3462621099999996  2.0911314100000000 16.9021368999999986
  0.5117783100000000  2.9518595200000002 13.1953333300000004
  1.2713891900000001  3.8501516699999998 11.2197159699999993
 10.2977475700000003  1.3356053400000001 17.7388850399999995
  3.1287683999999998  1.2827287000000001 18.2136533800000002
 12.4940448800000006  4.5968245799999998 16.2921328900000013
  0.7341583500000000 11.0566107500000008 17.2237901700000009
 11.6469265400000008 11.3094590700000008 12.7208376199999993
  7.2183952299999996 13.0229770200000008 12.2009041899999993
 13.6313681300000002  4.4764927600000002 14.2470918599999994
  2.1239350600000000  0.5104331700000000 11.5371987399999991
  0.3947644800000000  6.4064094899999997 14.5237236500000009
  6.8298256500000001  9.8085771099999999 10.5446406100000001
  3.4606151199999999  9.5301248699999999 15.0819223000000004
 13.1357574400000008  7.9270274799999996 14.1963863999999997
  7.2414069200000002  2.7784927100000001 14.8375584600000003
  2.5107794299999999  8.9453357600000007 13.0055083400000004
  6.9936635300000001 12.3473032000000007 16.1904982799999999
 10.1037108100000008  3.6792563399999998 12.6050139899999998
  9.3383003900000006  9.4882356500000000 15.2799897900000001
  1.3911508200000000  9.1226995500000001 18.2658824700000011
  5.9806257699999996 11.5523293500000008 18.6841368900000013
  9.5479864600000006  2.3778896700000001 14.5270260800000006
  0.9466563000000000 10.7128613300000008 12.7260419000000002
  8.6299152899999996  2.0200038000000000 10.1703218900000003
 10.8136815700000000  2.1798406600000000 10.9922548199999994
  5.5013290000000001 10.2192470699999998 14.1235223100000002
  4.8337882800000003  3.9116038999999998 17.1619712000000000
 14.6217553099999993 14.1356362699999991 14.5736632099999994
  7.1514745700000004 10.0974924099999992 15.7842343100000004
 12.2087820800000006  7.2042634999999997 12.1474369400000004
  2.0315194399999998  6.6655762999999997 12.8841330500000009
 10.7243966700000009  8.1650399599999997 17.4983801600000000
  1.8936810799999999  6.0817596700000003 16.3306354999999996
  6.3527614300000002  4.8792882500000001 10.6129151000000004
 11.0323908599999996 10.3152673700000008 16.7545052800000001
 10.8911453999999992 13.9396026600000003 16.5735486499999993
 12.3780772399999996  0.5707040200000000 11.4911722600000008
 11.6916036900000009  5.2570129100000003 13.2590395300000008
  2.7247166900000002 11.5751347599999992 15.9622744500000007
  4.0458294800000001  0.9235232300000000 14.3486505500000003
 11.5680332600000000  6.7372494200000004 15.6133254899999994
  1.3509082299999999  4.6387350300000003 18.0367535600000011
  5.7356835999999998  6.3788613800000000 14.5831696900000001
  8.0354351000000008  6.0964192300000004 17.6175253000000005
 14.4579783800000001  0.8012786300000000 12.5380967200000004
 11.0857121500000009 13.6065761199999997 12.6560071999999995
  1.2053793900000001  6.0770759500000002 10.8124796900000000
 10.5816342300000006  3.2546964799999998 16.4699761500000008
  5.8316662700000004  5.9846291899999997 16.9418091900000007
  1.7300758899999999 12.5089007999999993 14.0673549700000002
 13.0894896799999998 13.3027144300000000 16.1460013099999991
  1.0251218700000000  0.5171398400000000 18.2920603100000001
  6.3018457200000002  7.3403279599999998 10.4879695200000000
  4.8989449100000000  7.6741493600000004 18.1929009300000004
  9.0017448400000006  4.0501687500000001 17.9356415200000008
  5.7975385599999996  2.0371172500000001 13.1267071400000006
  9.9343719099999994 -0.0033134100000000 14.5179850800000008
  3.0188667599999999  2.5061879999999999 10.7655477099999999
  8.1561684099999994  1.9666393499999999 18.4466530599999992
 13.1954467300000005 10.9944221599999992 15.9781924899999996
  6.5081074000000001  8.7175361299999992 12.6205219900000003
  4.4040747400000004  8.7360787000000002 11.4856572499999992
  8.5361890900000006 11.2309722999999995 11.3456381600000000
