 H Si 
 1.0000000000000000
    14.5388263617727471    0.0000000000000000    0.0000000000000000
     0.0000000000000000   14.5388263617727471    0.0000000000000000
     0.0000000000000000    0.0000000000000000   11.0623772366800601
 H   Si 
   9  94
Cartesian
  1.4969100000000000  1.4944800000000000  1.6736599999999999
  3.2893300000000001  2.0052500000000002  9.9039800000000007
  0.8564280000000000  1.9063099999999999  9.9457400000000007
 13.9055000000000000  2.2846799999999998  3.7004100000000002
 12.3280999999999992 14.8134999999999994  3.7367800000000000
  7.2477799999999997  5.7106300000000001  6.5311899999999996
 12.2876999999999992 13.8712000000000000  6.6239800000000004
  2.0653400000000000 12.4418000000000006  2.5747800000000001
 13.8805999999999994  1.2125900000000001  1.0570400000000000
  9.1131300000000000  7.6025499999999999  5.3101700000000003
  0.7378290000000000  6.6509299999999998  7.2625999999999999
  5.3907499999999997 12.4778000000000002 10.5427000000000000
  5.5384300000000000  4.3422200000000002  0.0214859000000000
  5.1262499999999998 11.9488000000000003  1.9691799999999999
 10.8933999999999997 10.9693000000000005  2.8313500000000000
 12.8607999999999993  2.4704100000000002  1.0066400000000000
  6.5684800000000001  9.8891700000000000  5.9436900000000001
  8.7967399999999998  9.6510800000000003 10.5000000000000000
 12.2073999999999998  9.5188900000000007  1.4845600000000001
  1.9833000000000001  5.1497200000000003  8.8293199999999992
  8.3302600000000009 13.0661000000000005  1.2085900000000001
  2.6288399999999998  9.3921700000000001  5.0904699999999998
  0.1435130000000000  6.9815399999999999  5.0221099999999996
  4.4802299999999997  4.8676000000000004  7.9268999999999998
 11.0893999999999995  0.2896980000000000  6.7195499999999999
 12.8099000000000007  6.1153800000000000  0.1908150000000000
 11.1412999999999993  9.2988900000000001 10.4492999999999991
  4.6470399999999996 10.8102999999999998  8.9655600000000000
  7.2649800000000004  6.2644500000000001  5.1358100000000002
  8.9424100000000006  6.1725500000000002  0.5270410000000000
  6.4825799999999996  2.7803300000000002  4.7316000000000003
  4.4791299999999996  7.2344200000000001  7.6897799999999998
 11.0617999999999999  0.1021000000000000  3.0110800000000002
  6.5805499999999997  4.3929200000000002  8.9758200000000006
  8.2916799999999995  6.1782899999999996  9.2515199999999993
 10.7532999999999994  2.1515700000000000  1.8716999999999999
 11.6701999999999995 11.0685000000000002  8.9418199999999999
  2.2536700000000001  2.7705199999999999  1.1461600000000001
 14.0534999999999997  8.0926799999999997  8.6495599999999992
  8.7320200000000003  2.4646599999999999  0.9156760000000000
 13.3518000000000008  3.5395500000000002  3.0813000000000001
  9.5375800000000002  2.1221800000000002  9.6151000000000000
  4.9005999999999998  2.9033899999999999  6.4695999999999998
  7.1422900000000000 10.0884000000000000  3.6307499999999999
 11.9239999999999995  2.4246799999999999  6.7106000000000003
  7.4499700000000004  4.5074899999999998  1.3887300000000000
  8.5615900000000007 12.8270999999999997  8.2246799999999993
  7.6865600000000001 12.0167999999999999 10.2634000000000007
  5.6334499999999998  8.6865500000000004  9.2562499999999996
  5.7210200000000002  0.4961290000000000 10.5160999999999998
  5.0833500000000003  9.5706900000000008  2.4241999999999999
 11.5206999999999997  7.8704000000000001  2.8362599999999998
  2.1697099999999998  6.5442299999999998 10.7052999999999994
  2.1931099999999999 10.0193999999999992  9.0152800000000006
  2.4458299999999999  8.3558599999999998  7.3251299999999997
  1.0926300000000000  8.7329899999999991 10.5701000000000001
  5.1945199999999998 11.5701000000000001  6.7711399999999999
  6.3628900000000002  4.8165800000000001  3.5189800000000000
  0.5388390000000000  5.2700600000000000  3.1969900000000000
  5.5697700000000001  7.7526900000000003  5.7399100000000001
 13.9322999999999997 10.1816999999999993  7.9364200000000000
 13.2738999999999994  3.9935499999999999 10.4605999999999995
  7.5676399999999999 13.9069000000000003  4.6798200000000003
  8.1074400000000004  8.2184899999999992  1.0929800000000001
 10.6166000000000000  5.8518900000000000  8.2811800000000009
  3.3396400000000002 12.8446999999999996  3.2357000000000000
  0.2798990000000000  6.5736100000000004  1.2071400000000001
  4.2013299999999996  7.9006600000000002  3.9265800000000000
  0.0512763000000000  8.8794199999999996  1.7658300000000000
 11.6534999999999993 11.4739000000000004  5.1312400000000000
 13.3434000000000008  9.8346199999999993  5.5701000000000001
  2.5533399999999999  4.0583200000000001  3.0766399999999998
 11.5028000000000006 13.0654000000000003 10.3762000000000008
  9.1881500000000003  9.2135499999999997  3.1887099999999999
 10.4458000000000002  3.8140100000000001  5.4236100000000000
  5.8388000000000000  8.2552299999999992  0.5636880000000000
 10.6417999999999999 12.9398000000000000  1.5910200000000001
  7.1558299999999999 12.2777999999999992  2.8952000000000000
  3.1709700000000001  2.2958799999999999  4.6809900000000004
  6.5810500000000003 13.5737000000000005  6.9197400000000000
  4.1921999999999997  5.8951300000000000  2.7127400000000002
  7.3355800000000002  0.6973390000000000  1.3267899999999999
  0.6280840000000000  9.1109100000000005  4.1347899999999997
  3.4051100000000001 11.6377000000000006  5.3788799999999997
  8.6834799999999994  9.3921100000000006  6.7591700000000001
  4.3767899999999997  6.3021200000000004  0.5215060000000000
 10.3164999999999996 14.4979999999999993  8.9004899999999996
  4.2732700000000001  2.2613799999999999 10.9998000000000005
 11.4771999999999998  3.5125199999999999  8.8918400000000002
  0.9704480000000000  3.3704100000000001 10.1343999999999994
  9.5732499999999998  0.3844770000000000  4.8862899999999998
  6.2871600000000001  0.8310260000000000  3.4326500000000002
  8.6110199999999999  2.4220500000000000  5.8136700000000001
  8.0125299999999999  8.5084300000000006  8.8024100000000001
 10.8280999999999992  6.1367000000000003  5.9693399999999999
  7.7511299999999999  2.4734400000000001  8.0745000000000005
  4.0565300000000004  0.4574710000000000  3.6533500000000001
 11.0266999999999999  6.0076000000000001  1.6542900000000000
  5.8649199999999997  1.1649300000000000  8.1024899999999995
 10.1472999999999995 11.2187000000000001  7.2061999999999999
 11.1353000000000009  4.0903299999999998  3.1122100000000001
 12.5302000000000007  7.6796300000000004  4.9680000000000000
 11.9145000000000003  7.3772200000000003  9.4328500000000002
