 H Si 
 1.0000000000000000
    14.5342042383440404    0.0000000000000000    0.0000000000000000
     0.0000000000000000   14.5342042383440404    0.0000000000000000
     0.0000000000000000    0.0000000000000000    6.8617348948077899
 H   Si 
   4  53
Cartesian
 12.2064000000000004  8.1133799999999994  3.9522499999999998
  9.5721399999999992 10.5022000000000002  0.4619110000000000
  6.9105400000000001  1.4053300000000000  4.8553600000000001
 10.4954000000000001 -0.0188883000000000  5.2653600000000003
  0.8549440000000000  6.2201599999999999  0.4137410000000000
  6.9266199999999998  4.5333300000000003  5.6729099999999999
  5.8028800000000000  2.9951400000000001  2.3072900000000001
  8.6939899999999994  9.3222699999999996  3.3933100000000000
  5.7748400000000002 13.2364999999999995  2.0436500000000000
  4.0859899999999998 13.5349000000000004  4.9150700000000001
  9.6875099999999996  2.4733700000000001  3.3370899999999999
  2.3099099999999999  2.5903399999999999  6.0799500000000002
  7.4911300000000001  3.8723800000000002  0.9913960000000001
  4.6977300000000000  0.8297830000000000  1.7052300000000000
  3.1735400000000000 10.0117999999999991  4.3656199999999998
  5.0986000000000002  7.9859200000000001  0.3507100000000000
 12.8797999999999995  7.0559700000000003  4.5893899999999999
  2.0594700000000001  8.0273800000000008  3.7947500000000001
 10.8996999999999993  2.6137199999999998  6.7193500000000004
  2.0370200000000001 12.0937999999999999  4.4772299999999996
  3.2539099999999999  0.4854150000000000  3.4364200000000000
  3.4771399999999999  0.4444690000000000  6.7475600000000000
 10.4663000000000004  4.6860299999999997  5.8188399999999998
  2.8955199999999999  4.7882199999999999  0.4302680000000000
 13.5541000000000000  0.9670700000000000  4.2558800000000003
  4.8259900000000000  5.9382200000000003  5.9513800000000003
  0.9269300000000000  8.1505600000000005  1.8657500000000000
  2.3480099999999999  2.7635399999999999  3.7345999999999999
  1.0615300000000001  9.7223600000000001  0.1587860000000000
 11.1793999999999993  1.3234900000000001  4.8091600000000003
  5.1032299999999999  9.9623500000000007  3.1283799999999999
 13.3134999999999994  5.3116199999999996  1.0392900000000000
  7.8982999999999999  7.0609599999999997  3.3445200000000002
  6.9526599999999998 10.4644999999999992  4.5425199999999997
  0.4283920000000000  7.7840100000000003  5.4678300000000002
 11.7170000000000005  6.5197200000000004  6.6217800000000002
  9.0650099999999991  5.5670999999999999  1.9645500000000000
  5.5728000000000000  7.6154900000000003  2.7684199999999999
  8.7081499999999998  9.4072099999999992  1.0695800000000000
  8.4656699999999994  6.2027400000000004  5.4578800000000003
  6.2606500000000000 12.7599000000000000  4.2557799999999997
  1.0302300000000000 11.9008000000000003  6.5093500000000004
  1.2559899999999999 14.1884999999999994  0.6835500000000000
  3.5361199999999999  9.8393599999999992  6.7583700000000002
  6.6547299999999998  9.7345400000000009  6.8221699999999998
  0.2946940000000000  1.5796399999999999  6.4443000000000001
  3.8624299999999998  6.4026199999999998  3.8929399999999998
  3.7851900000000001  4.1903300000000003  2.6325599999999998
  9.4095300000000002  7.3156299999999996  0.3946600000000000
  1.1142399999999999 14.0563000000000002  3.0813799999999998
 14.2175999999999991  2.9212099999999999  3.1381800000000002
 13.0536999999999992  5.0042600000000004  3.2907700000000002
 13.2066999999999997  2.8315500000000000  0.9507900000000000
 10.6906999999999996  4.5807599999999997  3.4712999999999998
  9.1121999999999996  2.1134800000000000  1.1491300000000000
  5.1341900000000003 11.1730000000000000  0.9938020000000000
  7.1859799999999998  2.7306599999999999  4.1490400000000003
