 H Si 
 1.0000000000000000
    14.5342042383440404    0.0000000000000000    0.0000000000000000
     0.0000000000000000   14.5342042383440404    0.0000000000000000
     0.0000000000000000    0.0000000000000000   28.2564940000000036
 H   Si 
   9  88
Cartesian
  6.5755421099999998 11.2964241899999998 12.6381080600000004
  5.9814683400000002  7.1802608100000000 11.2860055199999998
  8.0762015199999997  6.8548660699999999 17.1326515199999996
  6.8950679399999997  0.8841294500000000 15.8498265800000002
 11.1120154499999995  1.3917354200000001 13.9202430899999996
  3.2027154499999999  2.2011428300000002 15.7985439299999992
  0.5135310000000000  4.0935293200000000 13.3060254199999992
  8.3968474700000009  6.9837542800000003 14.3951369099999997
  7.5619722899999999  9.4605412999999992  8.9612626599999992
  6.2311376500000000  3.4042780399999999 18.2773247499999982
 11.2404589399999999  9.3665987400000006 11.9819579100000002
 10.9597311400000006  9.5745281999999996 14.3851216300000004
  5.4760883299999996  1.6949896600000001 15.7662196500000000
  9.5405562400000008 10.8555048599999999 11.0718453900000000
  9.3371255800000004  5.7116178700000004 17.2046124499999991
  8.8841819100000006 13.0620801899999996 10.4268655700000004
  5.5358735000000001  7.9902361800000001 14.8976813200000002
  1.8341132700000000  9.2222163100000003 14.8131828999999993
  2.8375520000000001  6.6729333200000003 12.3656436900000006
 15.1781484300000002 13.1498066399999995 17.0517024200000016
  7.3819811900000003  7.6179805500000004 11.5739401100000006
 11.6344298399999992  3.6469168999999999 12.1652599899999991
  3.8933260600000001 10.3011858200000006 12.0744697700000003
  7.5724436199999996  8.1072642899999998 13.8311917199999996
  6.2054348299999997  9.4783248199999992 17.8693535799999985
  1.8082653300000000  3.2829400000000000 13.2382201500000001
  4.4217484899999997  6.1640448499999998 14.0309644500000008
  3.9551566700000000 10.1805531699999996 17.6397014399999996
  8.2449120100000002  3.6479296799999998 17.1843649399999983
  6.9799913299999998  3.3877584199999999 15.1715264100000002
  2.5894794700000001  4.5965097999999998 11.3095325899999999
  1.1795594300000001  1.0877671600000001 12.7230484399999995
  9.7315396199999995 12.1615209899999996 17.1645778900000003
  0.9261049900000000  7.6556086399999996 13.3245940500000000
  4.1960793100000000 11.6248743399999999 15.8353011400000003
  3.3081996600000001 12.5801086899999994 11.7196034400000002
 12.9779699599999994  0.4242944300000000 10.9543660500000009
  8.6798785699999996  9.9836453200000008 14.6009531100000007
  5.8752516999999997  4.4549381500000003 13.3937587600000008
  9.5388313500000006  0.6826633800000000 10.9623046100000003
 13.7369312899999994 11.3868398400000004 16.3394055300000005
  2.2069739500000001 12.7749695600000006 15.3251331400000002
  6.9232288899999999  4.0900806899999997 11.2848395600000000
  5.2059018200000002  1.2816909800000000 18.0777458899999992
 11.7556949900000003  7.4728586300000002 15.0147543399999996
  0.6605956700000000 11.2075022900000008 14.4917589800000002
  0.6841457100000000  0.6066883199999999 10.4887991100000004
  4.0709195999999999  9.7890319500000000 14.3671445400000000
 11.6803824200000008  5.8539102099999996 18.2013530500000016
 11.3833056700000004  1.9711072000000001 10.5022293500000004
  0.5795959600000000  8.7718059099999994 11.3548731899999993
  4.6851873199999998  0.8568024300000000 13.7230336800000003
  9.6645437100000002  4.4187993600000004 13.2014980600000005
  8.8265745300000003  5.7729005799999999 11.4316946900000005
 14.2707166200000000  5.9868190500000003 16.1413761499999993
 12.8515157099999993  7.6073342500000001 17.0742462400000008
 10.8288393099999993 13.0647325799999994 13.9583063000000003
  1.9161154800000000  8.9197999899999996 17.1377835099999984
  5.3357737299999997 13.1552165700000003 10.6190311600000005
  1.1673835900000000 12.9458541700000005 11.0348402300000004
  9.0103483299999994 11.8005895699999996 13.1261538299999998
 11.5481184399999997  3.4532986800000001 15.9129970499999995
  5.2098229199999997  5.3139013899999998 17.4747362499999994
  4.6289892699999999  3.6278473199999999 10.5960694300000000
 13.8793741199999996  0.6929854000000000 14.1148448000000002
  3.4299190500000001  5.2768546399999998 15.9945585599999998
  7.6480461799999997  9.6424648699999995 10.4234100999999999
 14.1698284200000000  9.4707489000000002 17.6203443399999991
  2.7879775300000000 14.0842445999999999 13.4968812800000002
 12.8410481999999995  5.6227270400000000 11.8135983699999993
 13.2643586500000001  4.2249568200000001 17.2318001199999991
  2.8370290200000001  8.5739038200000000 10.8892171700000002
  6.8926739799999996 14.4443207900000008 17.1682706399999994
 10.4358259899999997  5.4703747099999998 15.1845336100000008
 12.2725521999999998  2.3572763700000001 13.9870879600000002
 10.9489011999999999  6.9895884600000002 11.5395075299999998
  9.2485469499999997 -0.0227509300000000 16.9387660599999990
 10.0439958399999991  2.1856965200000000 17.2692254699999985
 12.7871446199999994 13.5721904299999991 12.8342002700000002
  4.1945718699999999  2.9247068500000002 12.7680908899999999
  7.4727206800000001 13.3770723399999998 13.8671473200000008
 14.2252379300000005 11.7807671799999998 12.4059441400000008
  7.7770516299999999 10.8738207700000000 16.6024264700000010
  6.3610050400000002 12.5835745499999998 15.8304389699999994
  7.6644387099999998  1.8347733799999999 11.6956810000000004
  0.4742394500000000  2.6697428699999999 17.1259733999999995
  6.2728565700000001  0.0244357600000000 12.2530434699999997
 13.3046174100000005 10.0903049100000004 11.0978871699999999
  1.8169676699999999  6.6393707700000002 16.8251498700000006
  9.2727558699999992  0.2255759800000000 14.6035460100000005
  8.5516148600000008  2.3702164400000001 13.7702583999999995
 11.4881273200000003 11.5556008099999996 15.6690399199999995
  2.1897409099999998  3.3008821300000002 15.6232552200000008
 13.5577563800000007  6.4628927500000000 13.9183389900000005
  5.9712548500000002 11.0024545800000002 11.2895123900000005
 -0.2288358900000000  0.6155837400000000 16.3961625099999999
  6.3368168300000001  7.3112818300000004 17.0350422700000017
