 H Si 
 1.0000000000000000
    14.5538280032082756    0.0000000000000000    0.0000000000000000
     0.0000000000000000   14.5538280032082756    0.0000000000000000
     0.0000000000000000    0.0000000000000000    7.8696451264634391
 H   Si 
   2  60
Cartesian
  2.7809699999999999 12.1358999999999995  3.4885600000000001
  3.6473000000000000  0.8037540000000000  4.3982200000000002
  1.3358600000000000  9.4163599999999992  0.2205600000000000
  6.8576499999999996 13.1580999999999992  1.5624700000000000
  9.4134200000000003 11.2301000000000002  5.3982700000000001
  9.2765199999999997  2.8069700000000002  4.5752400000000000
  9.1513600000000004  5.3680700000000003  6.7490199999999998
  8.2648700000000002  8.8251799999999996  7.6494099999999996
 11.6489999999999991  8.5754599999999996  3.2111000000000001
 12.0502000000000002  5.3173399999999997  1.2604400000000000
 11.1189999999999998 10.8457000000000008  3.5970000000000000
  5.9188099999999997  6.0761799999999999  1.8921500000000000
  2.2789299999999999  5.6985000000000001  4.2022199999999996
 13.5854999999999997  5.5554399999999999  3.1706400000000001
  7.3115899999999998 10.3767999999999994  4.6876400000000000
 10.9585000000000008  7.3928399999999996  1.2923899999999999
  3.7839200000000002  2.8159800000000001  2.0800200000000002
  6.5111800000000004 13.0873000000000008  7.0548500000000001
  2.2570800000000002  8.8148300000000006  6.0254399999999997
  7.4876800000000001  8.2103999999999999  5.5165100000000002
  9.0468700000000002  6.6807400000000001  4.7485400000000002
 13.6168999999999993  6.0083000000000002  7.5667000000000000
  3.7547799999999998 10.9867000000000008  3.1290600000000000
  1.1540999999999999  4.4254400000000000  2.6684299999999999
  5.5285200000000003  0.6033720000000000  6.9303499999999998
 10.1226000000000003 10.3831000000000007  7.5817399999999999
  7.4274100000000001  1.8093600000000001  7.3512399999999998
  6.1606399999999999  9.7965099999999996  0.5774370000000000
  6.7468000000000004  0.6441360000000000  2.9369900000000002
  9.3327500000000008  0.4862590000000000  7.6297300000000003
 11.6771999999999991  8.6565600000000007  7.5049700000000001
  4.8665399999999996  1.7116600000000000  3.9215399999999998
  9.0950299999999995  3.6190799999999999  2.2946000000000000
  2.7536999999999998  9.1472400000000000  2.1189300000000002
  5.4844700000000000  4.0071000000000003  0.9751440000000000
 12.5832999999999995  5.6004500000000004  5.4398000000000000
 13.9222999999999999  8.2321399999999993  0.4432190000000000
  7.7449800000000000  3.6793300000000002  6.0091099999999997
  3.8176500000000000  7.2440800000000003  6.9638099999999996
  4.0945000000000000  9.8576899999999998  5.0757300000000001
  1.5440799999999999  7.9871400000000001  3.9231400000000001
 13.9336000000000002  7.9393200000000004  2.9147799999999999
  7.1294700000000004  2.5707599999999999  1.5866899999999999
  9.2660199999999993 13.8933000000000000  1.8664499999999999
  8.2081099999999996  5.8852700000000002  2.6283300000000001
 11.1403999999999996  7.5190099999999997  5.3742299999999998
  4.7164799999999998  5.6390300000000000  3.9293399999999998
  8.7315500000000004  0.5520610000000000  4.1877000000000004
  5.7622799999999996 10.9107000000000003  6.3839899999999998
  5.1574299999999997  7.5778299999999996  5.2086100000000002
  8.8511100000000003  6.9059999999999997  0.6827420000000000
  0.9441130000000000  4.8438499999999998  0.2815880000000000
  2.7168600000000001  5.2241499999999998  6.6352200000000003
 10.0200999999999993 11.7483000000000004  1.7179500000000001
  4.2658199999999997  3.7790699999999999  6.8836800000000000
  3.4925799999999998  1.8269800000000000  7.7652400000000004
  6.1086600000000004 11.0879999999999992  2.6624099999999999
  8.5933899999999994 13.5511999999999997  5.9553599999999998
  4.6260899999999996  7.9994800000000001  1.1610700000000000
  5.6303599999999996  3.6210300000000002  5.0330700000000004
 10.6965000000000003  3.4823599999999999  0.5816450000000000
 10.8645999999999994  3.8514599999999999  6.0569899999999999
