 H Si 
 1.0000000000000000
    14.5330482480292638    0.0000000000000000    0.0000000000000000
     0.0000000000000000   14.5330482480292638    0.0000000000000000
     0.0000000000000000    0.0000000000000000    9.1219855031252060
 H   Si 
   4  78
Cartesian
 14.2517999999999994 12.0823999999999998  8.4908999999999999
  5.2363000000000000  8.7212200000000006  5.4487699999999997
  6.0061499999999999 10.9677000000000007  7.4356799999999996
  2.2589899999999998  9.3274699999999999  9.1431199999999997
 13.1219000000000001  6.2122400000000004  0.2829190000000000
  2.4666199999999998 13.9817000000000000  2.8646699999999998
 11.8437000000000001 10.4551999999999996  0.4722380000000000
  7.4283299999999999 13.5470000000000006  6.9549500000000002
 14.2660999999999998 11.4594000000000005  3.4895299999999998
 11.2141999999999999 13.6262000000000008  2.5689000000000002
 13.3394999999999992  9.6206800000000001  2.2856600000000000
  9.6720699999999997  6.6449600000000002  9.1114800000000002
  9.7024299999999997  3.4249800000000001  7.4186500000000004
  2.6149900000000001  1.1553599999999999  4.4371200000000002
 11.3165999999999993  2.3432400000000002  8.7765500000000003
  8.2824200000000001  9.5834799999999998  2.0613299999999999
  7.2241999999999997  3.1139600000000001  2.6809599999999998
  7.2713900000000002 14.1010000000000009  1.5705000000000000
  9.1456199999999992  0.1412190000000000  2.9897200000000002
 14.1731999999999996  0.3453820000000000  7.1742699999999999
  4.6167499999999997  7.6452700000000000  2.5779600000000000
  8.9608000000000008 13.6217000000000006  5.0357099999999999
  8.1196199999999994  0.4849210000000000  8.7236300000000000
  9.3542400000000008  6.5174200000000004  5.1270300000000004
  6.2583500000000001  4.4987300000000001  4.2667599999999997
  6.7932100000000002  4.0708799999999998  0.6880039999999999
 13.9210999999999991 13.4849999999999994  9.0135000000000005
  4.2398899999999999  4.5259299999999998  0.6427840000000000
  0.3957400000000000  6.4739300000000002  3.7318699999999998
 10.5677000000000003  2.4470399999999999  5.3828500000000004
 10.2997999999999994  5.6837900000000001  7.1115500000000003
  0.5736340000000000  7.9926500000000003  5.5841000000000003
 11.2852999999999994  5.8011400000000002  1.5100499999999999
  7.2180099999999996  6.4640000000000004  4.3787300000000000
  3.6608299999999998  6.8665700000000003  0.5845950000000000
  1.3453599999999999  2.9425900000000000  7.8901899999999996
 11.6347000000000005 12.9664000000000001  0.4395900000000000
  0.2290110000000000 13.3728999999999996  2.2139199999999999
 13.2179000000000002  0.0641662000000000  3.3272300000000001
 12.6550999999999991  6.4806800000000004  7.1239400000000002
 10.6517999999999997  0.2015030000000000  6.0823000000000000
  9.7978000000000005  9.0170499999999993  0.3481160000000000
  2.0099800000000001  0.9474710000000000  6.7767799999999996
  1.7190300000000001  7.9331199999999997  0.1268620000000000
 11.6937999999999995  8.7336500000000008  3.7772899999999998
  1.9524800000000000  4.7234499999999997  3.9490400000000001
 13.4411000000000005  2.5860200000000000  7.5339799999999997
  7.4272299999999998  2.6771600000000002  7.8802399999999997
  8.7606000000000002  8.6506299999999996  5.8759499999999996
  5.7221599999999997  1.0334399999999999  2.5878500000000000
  1.2231799999999999  2.7717900000000002  3.0145100000000000
 11.9835999999999991 10.2271999999999998  7.2341600000000001
  9.4119100000000007 10.1677000000000000  7.4730499999999997
 14.4062999999999999  7.6045100000000003  1.6955499999999999
  4.4707400000000002  4.7017600000000002  7.2479300000000002
  2.4371200000000002  2.8720300000000001  0.9244630000000000
  6.9905799999999996  7.5780399999999997  2.2076600000000002
 11.3519000000000005  3.4377399999999998  1.9394000000000000
  0.8493080000000000  6.6453800000000003  7.4003699999999997
  9.5003200000000003  9.8153000000000006  4.0427499999999998
  3.7821600000000002  0.0389350000000000  8.0653299999999994
 10.4352999999999998 12.0140999999999991  4.0928800000000001
  4.1914800000000003  5.2832800000000004  2.9793200000000000
  7.4722099999999996  6.3166599999999997  0.2808200000000000
  7.3773099999999996 11.4905000000000008  8.0589800000000000
 12.7117000000000004  3.2545099999999998  5.3517000000000001
  4.9201499999999996  1.1230100000000001  4.8558899999999996
 13.3320000000000007  2.5452200000000000  3.2207699999999999
  7.5042700000000000 11.7210999999999999  1.1832000000000000
  3.6527799999999999  0.8335150000000000  1.2423100000000000
  6.2424799999999996  7.9039400000000004  6.1042899999999998
  9.5218600000000002  2.5405099999999998  3.2334000000000001
 12.7113999999999994 14.0655999999999999  5.5007900000000003
  5.5793999999999997  6.6319499999999998  7.9881799999999998
  2.1046200000000002  4.8130199999999999  6.4729599999999996
 12.6986000000000008  8.5183499999999999  5.9352600000000004
  5.8360599999999998  3.0718700000000001  6.1541399999999999
 12.8964999999999996  5.5441599999999998  4.9412700000000003
 11.2177000000000007  6.4969900000000003  3.6162200000000002
 10.4700000000000006  0.1655340000000000  8.5167800000000007
 12.5086999999999993 11.7385000000000002  5.1631900000000002
  5.2880399999999996 13.9910999999999994  6.4467299999999996
