 H Si 
 1.0000000000000000
    14.5756980063428063    0.0000000000000000    0.0000000000000000
     0.0000000000000000   14.5756980063428063    0.0000000000000000
     0.0000000000000000    0.0000000000000000   26.9321567000000002
 H   Si 
  21  70
Cartesian
 10.8347999999999995  4.6655499999999996 12.4439167000000008
 11.3747000000000007  1.7103500000000000 11.5269966999999998
  0.7331450000000000  2.0354100000000002 16.4330967000000001
 13.8524999999999991  3.3518699999999999 15.2930667000000007
 11.3224999999999998  1.9891099999999999 10.8989297000000001
 10.1112000000000002  2.6295799999999998 12.9648667000000000
 13.2134999999999998  2.1663199999999998 11.9622066999999994
 13.0518000000000001  5.3583600000000002 14.8830667000000005
 11.6811000000000007  6.2904999999999998 16.4691367000000000
 11.4190000000000005 14.5790000000000006 15.2312367000000002
 13.0633999999999997  3.9576799999999999 13.2204166999999995
  9.8667300000000004  4.2389000000000001 16.1992866999999983
  0.4823740000000000  2.2519100000000001 15.7894167000000003
 10.8498000000000001  4.5295600000000000 14.2384266999999998
  9.3702600000000000  1.8947000000000001 10.7045367000000002
 14.1372000000000000  1.9711200000000000 13.8546566999999996
 11.7525999999999993  1.9364300000000001 14.1275166999999993
 10.4489000000000001  4.9777699999999996 14.5574667000000009
 13.6335999999999995  2.5509700000000000 11.4275067000000004
 11.7804000000000002  3.8437199999999998 16.4559667000000012
 11.3093000000000004  1.5575800000000000 16.4380966999999991
  5.4775799999999997  7.0971700000000002 12.9919267000000005
 13.1338000000000008 10.3276000000000003 14.4378367000000001
 13.1157000000000004  7.2736999999999998 12.3088367000000005
  6.2022700000000004  5.2028800000000004 11.8519567000000006
 14.1960999999999995  4.5736600000000003 10.2206167000000008
 13.6768000000000001  5.0495599999999996 12.4259366999999994
  9.5186600000000006  5.1535399999999996 11.8764467000000007
 11.8280999999999992 13.4474000000000000 16.0401467000000011
 13.0950000000000006  4.3983600000000003 16.0032567000000014
  3.2469800000000002 12.2591999999999999 13.0791866999999993
 13.4228000000000005  8.0943000000000005 14.3904367000000004
  3.0100300000000000  0.2882000000000000 15.7687567000000008
  9.8368199999999995 10.8123000000000005 16.9321567000000002
  0.1926200000000000  8.1627500000000008 11.1940267000000002
  4.8620500000000000  6.8811799999999996 15.1489966999999996
  6.3119300000000003  9.9037500000000005 16.5393566999999990
  3.7017799999999998  9.3873300000000004 10.0565596999999993
  6.4384100000000002  5.6041400000000001 15.9709266999999997
  5.4996099999999997  2.2161300000000002 15.1552966999999992
 11.0815999999999999 10.3902999999999999 10.8957216999999993
  3.7433100000000001  8.3506900000000002 12.0850767000000001
  7.9445800000000002  1.8794700000000000 10.9895367000000004
  6.1179199999999998 13.3580000000000005 16.0455067000000007
  7.4771599999999996  0.1824330000000000 12.3659867000000006
  6.2801900000000002  0.8872960000000000 16.9203367000000000
  0.4798530000000000 10.6908999999999992 15.8921466999999996
  0.1350780000000000 10.5562000000000005 10.8247316999999992
  6.6969000000000003 10.3810000000000002 12.3755267000000000
  9.3803000000000001  7.2606400000000004 12.6816867000000002
  5.5686799999999996  0.6342989999999999 13.4881566999999993
  1.2946000000000000 12.1083999999999996 14.3113066999999994
  1.8692800000000001  1.4013199999999999 11.8230067000000005
  4.5151399999999997  9.2157400000000003 15.3908366999999995
 10.8817000000000004 13.8436000000000003 12.1318766999999994
 10.3084000000000007 11.5350999999999999 12.7792566999999995
  1.8956700000000000 14.3732000000000006 10.0000000000000000
  4.4136400000000000 13.5068000000000001 14.4898567000000007
  2.1951900000000002  8.9892599999999998 16.2144067000000014
  7.3597599999999996  8.1602099999999993 12.0380567000000003
  9.0098699999999994  3.0907600000000000 15.7520667000000003
  8.4669200000000000 13.2048000000000005 15.3910766999999993
  1.9625200000000000  7.0219899999999997 11.8507967000000001
  2.7484299999999999  5.7251799999999999 15.5197167000000000
  9.3292199999999994 -0.0216080000000000 13.6589267000000003
  1.0004900000000001  5.6553500000000003 13.7079266999999998
  0.1710040000000000  0.7158790000000000 13.3603266999999999
  0.8013500000000000 14.1655999999999995 15.2345267000000000
  4.1890700000000001  4.0329699999999997 12.1572767000000006
  2.7509399999999999  4.9771200000000002 10.7394216999999994
  2.4334799999999999  3.8608099999999999 13.7192966999999992
  7.1304200000000000  3.8197600000000000 14.7793267000000004
  8.3152699999999999 11.3444000000000003 13.8147766999999995
  4.1164500000000004  1.7482800000000001 11.9288067000000009
  3.2869000000000002 12.8223000000000003 10.9284507000000009
  4.4937500000000004 10.1974000000000000 13.3293666999999996
 11.2866000000000000 11.4003999999999994 15.0737466999999992
 11.6189999999999998  7.6597099999999996 15.8605666999999997
  1.4880700000000000  3.1306500000000002 10.1651466999999993
 14.1213999999999995 11.6539000000000001 12.7784267000000007
  7.8176100000000002  3.6929699999999999 12.5663467000000004
 14.1494999999999997 14.3180999999999994 10.0235188999999991
 10.2934000000000001  1.9455100000000001 14.2534167000000007
  7.0959700000000003 11.1616000000000000 10.2925947000000004
  3.0887199999999999  2.5909200000000001 15.3920466999999999
  0.6789780000000000  7.1379999999999999 15.6561866999999992
  9.4712200000000006  7.5422700000000003 15.0843667000000003
  8.4878499999999999  9.7040799999999994 15.4963166999999995
  7.1571699999999998 13.4382000000000001 10.4142516999999994
 13.1666000000000007 13.8778000000000006 12.1959967000000002
 11.1264000000000003  8.1103600000000000 11.3415166999999997
