 H Si 
 1.0000000000000000
    14.5492154080878304    0.0000000000000000    0.0000000000000000
     0.0000000000000000   14.5492154080878304    0.0000000000000000
     0.0000000000000000    0.0000000000000000    8.8240743201387772
 H   Si 
  14  69
Cartesian
  6.8118299999999996  5.0690099999999996  1.8137600000000000
  6.3675699999999997  3.0418599999999998  4.2445800000000000
  4.2402400000000000  4.3781699999999999  5.7307899999999998
  2.8306499999999999  5.6233300000000002  0.9341420000000000
  1.4038800000000000  3.9527299999999999  7.4136499999999996
  3.6780700000000000  3.9479099999999998  8.5464400000000005
  4.2122799999999998  3.6678799999999998  8.1840899999999994
  3.0533600000000001  6.4202100000000000  4.1822600000000003
  3.0002399999999998  2.4807299999999999  6.5142600000000002
  5.4793799999999999  6.4509400000000001  6.5441099999999999
  6.4083199999999998  2.4169000000000000  6.6667100000000001
  4.5508300000000004  3.7942100000000001  5.4893700000000001
  3.4411800000000001  1.9634700000000000  6.9455000000000000
  2.7084299999999999  5.4828500000000000  6.1589299999999998
  1.3318600000000000 12.4022000000000006  6.8640999999999996
 14.2159999999999993  2.0390299999999999  2.9681899999999999
  9.3315099999999997 14.1100999999999992  2.4264500000000000
  8.8760100000000008  8.7495799999999999  7.9630200000000002
  3.4492400000000001 13.2578999999999994  1.2343400000000000
 12.6809999999999992  9.7474900000000009  5.5101199999999997
  1.3804600000000000  8.6680899999999994  4.5178900000000004
  1.3104300000000000 10.2043999999999997  0.8988220000000000
  6.6405900000000004  8.0799199999999995  2.3789600000000002
 12.2392000000000003 10.3756000000000004  7.6853499999999997
 10.8132999999999999  9.3538399999999999  0.3025960000000000
 13.8648000000000007 11.2113999999999994  4.2018399999999998
 13.1724999999999994  0.4172960000000000  4.5532000000000004
  6.9188900000000002  9.3271700000000006  0.2748140000000000
  3.5114800000000002  7.7878100000000003  4.3609200000000001
 12.4794000000000000 12.6776999999999997  7.6814200000000001
  8.9917800000000003  3.9546199999999998  5.6215400000000004
 11.7248999999999999  1.1909900000000000  6.2995500000000000
 11.0402000000000005  6.9950900000000003  3.4962900000000001
  4.3139200000000004  8.7413900000000009  2.4007399999999999
  9.3032100000000000  5.0737399999999999  3.3947400000000001
 10.6580999999999992  3.2834400000000001  2.6705399999999999
  5.1877599999999999  7.7802100000000003  5.9611200000000002
 10.5541999999999998 10.5487000000000002  2.2786100000000000
  9.9858600000000006  4.6485700000000003  7.7758500000000002
 14.2931000000000008  8.2109600000000000  6.2990199999999996
  1.9058999999999999  6.5917700000000004  0.1617800000000000
 11.7187999999999999 14.2664000000000009  2.7502800000000001
 10.6186000000000007 13.9135000000000009  7.4342699999999997
  8.4056499999999996 11.6852000000000000  4.9664999999999999
  3.1590199999999999 12.2318999999999996  3.4056099999999998
 12.8905999999999992  4.0485600000000002  2.7477100000000001
  8.9490400000000001  9.2965999999999998  5.6701100000000002
  8.5450700000000008 13.5543999999999993  6.2562699999999998
 12.2894000000000005  2.3639000000000001  8.3058099999999992
  7.1937800000000003  2.4577100000000001  5.3697900000000001
  7.2133599999999998 14.3855000000000004  7.9254699999999998
 14.1334000000000000  9.1857299999999995  8.5158100000000001
  5.5547000000000004 12.8801000000000005  8.7077799999999996
 12.8526000000000007  5.7610000000000001  0.8571260000000001
 14.4552999999999994  7.3281999999999998  1.0168100000000000
  7.8367399999999998  6.1140299999999996  1.9722999999999999
 13.0386000000000006  5.9430399999999999  4.2298200000000001
  6.6897700000000002 11.3915000000000006  1.3042600000000000
  3.2628100000000000 12.7155000000000005  5.8299200000000004
  1.5975699999999999  5.3708299999999998  7.0275200000000000
  4.9347799999999999  9.3355999999999995  7.7023700000000002
  1.3625400000000001 10.6401000000000003  3.2536700000000001
 10.6647999999999996  9.1960599999999992  4.1987600000000000
  8.5750899999999994  0.5253390000000000  4.5226800000000003
  3.0879799999999999  8.5956799999999998  0.4569650000000000
 11.0688999999999993  7.1764400000000004  1.1063300000000000
  1.3235900000000000 12.4334000000000007  0.2925940000000000
 10.2918000000000003  2.2141899999999999  4.8890300000000000
 -0.0116403000000000  7.3775000000000004  3.1932900000000002
 13.1135999999999999  0.7767780000000000  1.2581000000000000
 12.4381000000000004 11.9459000000000000  2.5422899999999999
  6.2164900000000003 10.9047000000000001  4.8812100000000003
  6.9899500000000003  8.5704799999999999  4.7583399999999996
  9.2454000000000001  0.4026590000000000  0.2058040000000000
  8.6151599999999995 11.8809000000000005  2.5536699999999999
  9.1745099999999997  6.5105800000000000  0.0219455000000000
 13.9160000000000004  5.8981800000000000  6.4556199999999997
 13.7944999999999993 12.8941999999999997  5.8082399999999996
  4.9809700000000001 10.9797999999999991  2.8525299999999998
 10.0917999999999992  2.5427000000000000  0.3497070000000000
 12.4871999999999996  4.5268400000000000  7.6536299999999997
 13.7083999999999993 13.1620000000000008  0.7461270000000000
  5.1078500000000000 11.4364000000000008  6.7927299999999997
