 H Si 
 1.0000000000000000
    14.5434455481759581    0.0000000000000000    0.0000000000000000
     0.0000000000000000   14.5434455481759581    0.0000000000000000
     0.0000000000000000    0.0000000000000000   25.9421102000000019
 H   Si 
   9  64
Cartesian
  5.5071099999999999  0.3632260000000000 11.4745702000000005
  9.1997099999999996  8.5716300000000007 15.9421102000000001
  5.4612999999999996  4.9890100000000004 13.2535802000000000
  9.4313400000000005 11.3013999999999992 13.0206402000000008
  3.8327100000000001 13.2695000000000007 13.2398102000000009
  1.2148699999999999  2.0996800000000002 12.8892802000000000
  1.7964199999999999  7.9796899999999997 15.3612901999999991
  8.8645899999999997  4.4390999999999998 14.4270002000000002
 11.6965000000000003 10.6597000000000008 13.1708002000000004
  6.3363100000000001  9.2311700000000005 15.6853601999999999
  7.2783300000000004  8.3263400000000001 12.1543901999999999
  2.5530400000000002  5.1507399999999999 11.6744001999999991
 11.8155999999999999  6.6687599999999998 15.8735002000000005
 13.1723999999999997  5.9534000000000002 11.6227502000000005
  1.1149899999999999  0.5882820000000000 15.2146202000000006
  4.3400499999999997  6.1459900000000003 10.7439292000000002
  8.2315299999999993 12.9916999999999998 10.3525861999999993
  0.9031680000000000 10.6280999999999999 10.8268822000000000
  1.3457600000000001  8.6762300000000003 11.8009102000000006
  3.1301299999999999  4.7819900000000004 13.9998001999999993
  9.8125699999999991 10.1029999999999998 10.0000000000000000
  9.7941500000000001 11.7921999999999993 11.6250402000000008
  8.0458900000000000  4.8583900000000000 12.0477401999999998
 14.2449999999999992  8.7918400000000005 13.4017102000000001
  9.7443899999999992  0.3031910000000000 12.9080302000000007
 11.7075999999999993  4.7208300000000003 10.3472372000000004
  4.0105100000000000 13.0345999999999993 10.3387001999999999
  4.0301200000000001  9.7407500000000002 10.1140881999999994
  7.1403800000000004  6.3781299999999996 15.1616902000000007
  8.4179600000000008  0.6133320000000000 11.0651702000000007
  6.7146499999999998  4.4743599999999999 13.9138202000000000
 10.9258000000000006  2.2490399999999999 13.1641601999999995
 12.3609000000000009  7.9456499999999997 12.4023301999999997
  6.9608100000000004  1.0688700000000000 15.4741602000000000
 14.2916000000000007  2.1896300000000002 10.6472382000000003
 11.8788999999999998  9.0445600000000006 10.3086792000000003
  3.9803600000000001  8.8203200000000006 15.6581702000000007
  6.5039699999999998  5.0215399999999999 10.3229901999999996
  9.4614700000000003  9.5426900000000003 14.8673301999999996
  8.0486100000000000 13.8163000000000000 14.3928902000000001
  6.0270099999999998  2.2091699999999999 13.6788901999999997
  6.1500700000000004 12.3619000000000003 11.0343402000000008
 11.2233000000000001 13.5490999999999993 11.5310102000000008
 13.4857999999999993  4.6314500000000001 13.4257001999999996
  2.1364700000000001 13.9948999999999995 11.4176401999999992
  2.2801100000000001  1.1643300000000001 13.2114702000000008
  1.3828900000000000 11.6672999999999991 14.6534101999999997
  3.4648200000000000  9.3555799999999998 12.2733501999999994
  0.9180660000000000  5.1280599999999996 14.4241501999999997
  0.5837390000000000  7.2788599999999999 15.0041902000000000
  9.9760899999999992  3.5445400000000000 11.4545101999999996
  1.8986700000000001  3.0778200000000000 10.3302522000000003
  6.6549899999999997 12.1737000000000002 13.2964301999999996
 12.1120999999999999  4.4934799999999999 15.3098901999999999
  6.3974099999999998  1.5895999999999999 11.4274401999999995
  7.4001700000000001  9.9884699999999995 13.7954202000000006
  7.9126300000000001  8.8550400000000007 10.0171980000000005
 13.6061999999999994  0.3203770000000000 14.2947102000000008
  5.0720099999999997  7.5695600000000001 12.5246802000000006
 13.2913999999999994  2.2106100000000000 12.8832001999999992
  0.7640000000000000 12.4094999999999995 12.4462601999999993
  0.8289700000000000  6.6168899999999997 10.9033802000000009
 14.0160999999999998 10.5320000000000000 14.8882002000000000
 12.1763999999999992 11.6140000000000008 14.2294701999999997
 13.0397999999999996 13.2631999999999994 12.9530101999999996
 10.4283000000000001 11.4253999999999998 15.7530502000000006
  8.5841200000000004  6.9018400000000000 13.2426802000000006
  3.8184200000000001  2.5870600000000001 14.4214701999999999
 10.7083999999999993  7.7079899999999997 14.0577001999999993
  4.5645400000000000  6.6042300000000003 14.6924901999999999
  4.6212700000000000 12.4667999999999992 14.2572202000000008
  3.3591000000000002 10.5457999999999998 14.1705702000000002
  9.9708600000000001  3.6543100000000002 14.8813302000000007
