 H Si 
 1.0000000000000000
    14.5538280032082756    0.0000000000000000    0.0000000000000000
     0.0000000000000000   14.5538280032082756    0.0000000000000000
     0.0000000000000000    0.0000000000000000   25.7068459999999988
 H   Si 
   6  61
Cartesian
  4.4671799999999999  0.1965060000000000 14.4914159999999992
  1.7808400000000000  5.2965299999999997 14.4414560000000005
  6.0998299999999999 13.5000000000000000 15.1057059999999996
 12.2125000000000004  7.5590900000000003 15.6012160000000009
 13.7067999999999994  6.8673400000000004 15.1649860000000007
 12.4967000000000006  4.3639299999999999 14.2112759999999998
  9.5555900000000005  2.6468200000000000 10.7757009999999998
  8.3942399999999999  4.6651499999999997 10.6467159999999996
  8.6719899999999992  9.7157999999999998 13.5922359999999998
  2.8279200000000002  6.2994899999999996 11.5483360000000008
 14.2756000000000007 14.4108999999999998 12.4677760000000006
  0.0330470000000000  7.4200499999999998 13.9931760000000001
  2.7454100000000001  4.5567900000000003 10.0000000000000000
  2.7940000000000000 12.4016999999999999 13.8135960000000004
  1.6571499999999999 13.6780000000000008 15.4835659999999997
  1.3241000000000001  5.7342500000000003 13.0625859999999996
  4.8903900000000000  6.5570199999999996 12.7030360000000009
 13.3612000000000002  8.1050000000000004 12.0657060000000005
  5.9678100000000001 11.8369999999999997 11.3761259999999993
  2.2758200000000000 10.1647999999999996 11.3919660000000000
  5.2652400000000004  7.7058099999999996 14.6603060000000003
  7.3933600000000004  1.6392000000000000 14.1343460000000007
 12.5251999999999999  1.0660000000000001 15.6949959999999997
  1.3953899999999999  9.2262400000000007 14.6539160000000006
  1.4049300000000000 11.9177999999999997 10.0510819999999992
 11.1484000000000005  3.6572600000000000 14.2215360000000004
 12.2439000000000000  0.6083370000000000 11.6092659999999999
  2.1871499999999999  8.1743500000000004 10.2909500000000005
 10.2655999999999992 12.6447000000000003 11.0045760000000001
  8.9940300000000004 13.5267999999999997 12.6229460000000007
  9.3617100000000004  6.0771899999999999 12.1191759999999995
  3.2499600000000002  4.7347400000000004 15.7068460000000005
  6.2524699999999998 12.0518999999999998 14.8393359999999994
 11.4181000000000008  2.8066399999999998 12.0665259999999996
 13.6648999999999994 12.4746000000000006 13.3194359999999996
  3.2546599999999999 14.2066999999999997 12.4441959999999998
  4.9292800000000003 13.9062000000000001 10.9993459999999992
  0.8557790000000000  1.0223199999999999 14.1923759999999994
  8.3782899999999998  8.0961900000000000 12.1149059999999995
 12.6021999999999998  4.6368400000000003 11.1913959999999992
  7.6706899999999996 11.7121999999999993 13.0270159999999997
  3.5184199999999999  9.0131700000000006 15.2529260000000004
  4.4225500000000002 10.8766999999999996 14.3244360000000004
  7.4766599999999999  4.0020600000000002 14.5431460000000001
  8.1220999999999997  1.0830299999999999 12.0497759999999996
  6.0432699999999997  8.3033099999999997 11.7279459999999993
  1.5793100000000000  2.8950800000000001 11.1406659999999995
  1.4533000000000000 14.0358999999999998 10.9855660000000004
  9.7264900000000001 13.9088999999999992 14.6991060000000004
  5.1532700000000000  1.5274099999999999 15.0050559999999997
  6.2594399999999997  3.5094099999999999 10.8927359999999993
  3.9236599999999999  3.2979099999999999 14.0727960000000003
  1.1568400000000001 10.9948999999999995 13.1224559999999997
 14.4517000000000007  3.8555899999999999 12.3959960000000002
 10.8337000000000003  9.9555500000000006 14.5396160000000005
  5.6435399999999998  4.3601999999999999 12.9993359999999996
 11.6053999999999995  6.6407499999999997 11.5022459999999995
 11.8505000000000003 14.4342000000000006 13.8225960000000008
  2.6854900000000002  1.8203400000000001 12.8868960000000001
 10.1202000000000005  9.0353700000000003 10.8938260000000007
  9.4981700000000000  5.2009100000000004 14.3005359999999992
 11.7218999999999998  9.7085600000000003 12.3778159999999993
  7.6879400000000002  8.4664300000000008 15.2547259999999998
  6.4408099999999999  1.1095400000000000 10.5723760000000002
 12.3934999999999995 11.7799999999999994 11.5731260000000002
 14.3329000000000004 12.4619999999999997 15.4979659999999999
  4.5979200000000002 10.1745999999999999 12.1302260000000004
