 H Si 
 1.0000000000000000
    14.5237936979055426    0.0000000000000000    0.0000000000000000
     0.0000000000000000   14.5237936979055426    0.0000000000000000
     0.0000000000000000    0.0000000000000000   25.8272707299999986
 H   Si 
   1  61
Cartesian
  2.9569548600000002 -0.4570201200000000 12.9402601799999992
  3.6696497300000002  3.7661864899999999 13.7034508000000006
  9.3433068699999993  4.8234461099999999 13.3235792100000001
  5.3056095200000000  9.9611280000000004 11.4116105999999995
 11.4167863300000008  1.8517770099999999 12.3781441700000006
  6.4953486800000002  2.6765945900000001 11.9452654500000008
  7.2753317400000004  7.0070941099999997 11.0010758499999994
 10.8621522400000003 11.1645163200000006 12.6614636899999997
  4.8366853200000000  5.4636434500000002 14.8873211500000000
 12.4876390900000001 14.5409733600000006 11.3937357099999996
  9.3756683499999998  1.2278894100000000 13.5503792599999997
  4.8381407100000002  1.7638659100000000 13.3368981200000007
  1.5194668400000000  2.9958197800000002 13.0811670400000004
 10.9601854200000002 12.9012995600000000 11.1440925800000006
  0.2736066800000000  1.8866837900000000 14.7748846100000009
  7.0493879300000000  4.6703884899999997 15.3407950799999995
  9.3199069800000007 14.1805936700000004 15.2903667700000003
  4.9778564100000002  7.8413042500000003 14.3736762500000008
  1.4794536000000000  1.4759678199999999 11.2471294200000003
  9.4871380399999996  9.3177516600000008 12.0911852000000000
 -0.1275788100000000  4.4738335600000001 12.4126429399999996
  4.0238050599999999  8.0876854399999996 12.1349602399999998
 11.2427025000000000  4.0856473600000003 11.4559152999999991
  4.9942333400000001  6.3912159900000001 10.7208640299999995
  6.9885884599999999  9.0167164500000005 15.3480925100000007
  2.7978445299999999  9.2844214100000002 14.6390532899999997
 13.8283822900000004 12.2396019000000003 15.1770856999999992
  1.0850843600000000 11.9242082600000003 11.1736679999999993
 11.5772270200000005  4.7871205300000002 13.8468837300000001
  7.0190636000000000 -1.0057017200000000 15.7046939000000005
  5.9081712199999998 11.2097799299999998 13.2823492000000005
  7.3896925099999997 11.2752864699999993 15.0475161499999999
  1.6465233800000001  8.4204230199999994 12.7753011700000005
  9.1333909599999998  8.5957717200000001 14.3500745300000005
 12.9876639699999998  6.9945164499999999 10.7710920300000002
 14.3862245099999999  6.8243778400000004 12.6991086499999994
  8.8317216799999994 13.1442000399999994 10.3447880300000001
  3.6111857500000002 11.2741119399999992 13.5792884699999998
  8.3902329099999999 13.8366534399999992 12.5323818399999993
  9.2947433999999998 12.2109998999999991 14.0542083000000009
  9.3418098199999999  5.6611843200000003 11.1694245799999994
  0.2195105800000000 14.0742775899999994 11.8659850799999997
 10.8287329200000002  7.4191839300000000 11.6387270399999991
  2.8092485200000001 13.3154190299999993 14.5357495599999993
  0.4667661900000000 10.5087056800000003 12.9451634099999993
  0.4825100000000000 14.0883962900000004 14.2218705399999994
  8.3698108599999994  6.4362434700000000 14.5956233900000001
 11.5369895699999994  8.7811713499999993 14.9785240300000009
  3.4845973799999999  0.5870529900000000 11.8259991699999993
 13.0023117999999993  2.9641383000000001 13.7161646899999994
  6.0665492700000003 13.4423688299999995 12.6567282700000003
 13.2446554400000007  4.6268537900000002 10.3550854099999992
 12.1958301099999993  7.0373105799999998 13.5700403600000001
  6.5052707300000003  6.3741672999999999 13.1461968099999993
  3.5078068199999999 11.6810084599999993 11.2513929600000004
  5.2126571400000001  4.6156526800000002 12.1719854600000001
  7.9323885399999998  3.0694172300000000 13.7203387299999999
  1.4479501500000000 11.2549005199999996 15.0881085000000006
  5.0544047799999996 -0.1696336000000000 14.6367994299999999
  7.5415324400000001  9.3067025799999996 10.6847908900000004
 12.7655328099999998 10.5459225300000004 13.8671748699999995
  4.7859850499999999 13.5984425499999997 10.7060234800000007
