 H Si 
 1.0000000000000000
    14.5480618022149013    0.0000000000000000    0.0000000000000000
     0.0000000000000000   14.5480618022149013    0.0000000000000000
     0.0000000000000000    0.0000000000000000    7.5936261191850827
 H   Si 
   5  59
Cartesian
 12.3211999999999993 14.1450999999999993  0.4125190000000000
  4.6235600000000003 13.0698000000000008  2.6449699999999998
  8.6517599999999995  8.8265600000000006  1.3093300000000001
 11.3528000000000002  0.2519510000000000  5.6588399999999996
 11.9768000000000008 11.9529999999999994  3.7796400000000001
  4.5730000000000004  6.5928800000000001  4.5245400000000000
  3.9536799999999999  2.0513499999999998  1.6995300000000000
  9.6670300000000005  6.1686300000000003  7.1178800000000004
  2.5125700000000002  9.1060300000000005  0.0157016000000000
 12.2455999999999996  4.9293699999999996  4.0783100000000001
  1.0838200000000000  2.2117800000000001  7.2930700000000002
 12.6724999999999994  8.1655999999999995  5.9089299999999998
  9.4318000000000008  3.7975099999999999  6.2921500000000004
 12.4807000000000006  1.6932000000000000  2.9947499999999998
  1.0046900000000001  9.4425799999999995  1.7950999999999999
  1.8701300000000001 14.2749000000000006  4.6530899999999997
  9.2933900000000005  6.8256500000000004  4.8656800000000002
 11.7449999999999992  3.5655100000000002  5.9579899999999997
  3.4970900000000000  1.6735000000000000  7.0939100000000002
 12.6973000000000003  4.5995900000000001  0.3167470000000000
  0.4314050000000000 12.4077999999999999  4.0366700000000000
  7.4467100000000004  8.0334299999999992  1.6594800000000001
 11.8834000000000000  6.8007099999999996  0.1985110000000000
  4.3333800000000000 10.6189000000000000  0.4920860000000000
  4.7209700000000003  3.6219999999999999  6.1821500000000000
  5.7670500000000002  8.6260499999999993 -0.0122605000000000
  0.3981800000000000 11.2655999999999992  6.2251700000000003
 13.0883000000000003 12.1521000000000008  2.7343000000000002
  0.1558050000000000  2.4783499999999998  3.3756200000000001
 11.5062999999999995  7.1404699999999997  4.2204499999999996
 13.0230999999999995 14.2515000000000001  1.7180100000000000
 11.5784000000000002  3.6569199999999999  2.1509299999999998
  0.3001210000000000  7.6023800000000001  5.1238900000000003
  3.3885900000000002 13.9131999999999998  6.3900199999999998
  3.6490900000000002  6.0085899999999999  2.3928699999999998
  0.1021610000000000  1.2160400000000000  5.5529200000000003
  4.9210000000000003  3.9514600000000000  2.2720099999999999
  4.0821899999999998 10.4969000000000001  4.5936899999999996
  1.6639100000000000 11.8500999999999994  2.0471599999999999
  2.0889600000000002  1.1840900000000001  2.7994699999999999
 12.8086000000000002 10.5260999999999996  6.7323399999999998
  0.6780630000000000  0.3285340000000000  1.0282899999999999
  6.2336900000000002  4.1333099999999998  0.3961960000000000
  8.2489699999999999  4.6700400000000002  4.3556299999999997
  1.5932900000000001 12.8987999999999996 -0.0006303800000000
 13.1440000000000001 10.1956000000000007  1.5420400000000001
  0.1062640000000000  7.5987799999999996  2.6867200000000002
  5.9859000000000000  4.6054199999999996  4.2751500000000000
  7.9397500000000001  5.8439399999999999  1.0168500000000000
  0.0319048000000000  4.6285800000000004  4.0111999999999997
  5.6642599999999996  8.6488800000000001  5.1069199999999997
  9.1014900000000001  4.1997400000000003  2.1441100000000000
  0.4908190000000000  4.4741700000000000  0.2640860000000000
  1.8631500000000001  9.4575399999999998  5.5116300000000003
  1.2730200000000000  5.6499100000000002  2.2089599999999998
  3.4747100000000000  5.5523699999999998  6.3094200000000003
  4.7497199999999999 12.0924999999999994  6.2555500000000004
  3.8652099999999998  7.1810000000000000  0.3653260000000000
  3.8978899999999999 11.6456999999999997  2.5278700000000001
  1.2366200000000001  5.3526300000000004  5.7392500000000002
  8.2203999999999997  2.8977800000000000  0.4634510000000000
  7.8059799999999999  8.5772700000000004  3.9723000000000002
 12.4551999999999996  8.0472900000000003  2.0719500000000002
 12.2510999999999992  1.4114800000000001  5.3478800000000000
