 H Si 
 1.0000000000000000
    14.5353600448027152    0.0000000000000000    0.0000000000000000
     0.0000000000000000   14.5353600448027152    0.0000000000000000
     0.0000000000000000    0.0000000000000000    9.1004527859177919
 H   Si 
   5  73
Cartesian
 13.5751000000000008  2.6374800000000000  1.0566000000000000
 11.5320000000000000  3.4538400000000000  6.9630400000000003
 11.0449999999999999 11.3806999999999992  7.6591600000000000
 11.2077000000000009  0.3658690000000000  0.1978890000000000
 11.2882999999999996  0.0786516000000000  4.4214300000000000
 13.2738999999999994  5.4528699999999999  5.0861599999999996
  5.5858499999999998  0.7926510000000000  3.6556600000000001
  9.6456400000000002  7.8471299999999999  7.6781699999999997
  5.5371699999999997  2.9484599999999999  2.4895100000000001
  5.5745199999999997  7.9373100000000001  6.8478199999999996
 12.6720000000000006  8.4027899999999995  2.5182199999999999
 11.6965000000000003  6.4209699999999996  3.6045699999999998
  5.3359100000000002  1.1107800000000001  7.9889400000000004
  1.6459900000000001  7.3549499999999997  1.0750299999999999
  1.5414699999999999  6.7154600000000002  3.1768100000000001
  3.0390100000000002  6.9248099999999999  4.7748200000000001
  9.5008400000000002  6.5027400000000002  4.5439999999999996
  6.3388600000000004 11.7116000000000007  4.0398300000000003
  6.5105399999999998  4.7988799999999996  8.7763399999999994
  9.1778800000000000 13.5721000000000007  2.4226299999999998
  8.3496000000000006 11.6945999999999994  5.1423300000000003
 10.2542000000000009 10.3290000000000006  4.9238799999999996
  3.3735800000000000  3.6542100000000000  2.1669900000000002
  6.6264700000000003 13.5329999999999995  2.5157900000000000
  8.6787500000000009  8.6750900000000009  4.2727399999999998
  7.9972799999999999  5.2800300000000000  3.1292100000000000
 13.8520000000000003  7.4706400000000004  0.5635440000000000
 12.2284000000000006  4.7634999999999996  7.0711599999999999
  3.0722000000000000  2.0442100000000001  7.8873400000000000
 12.8065999999999995  5.2596400000000001  0.3024820000000000
  1.4006700000000001  9.4998299999999993  7.4126700000000003
  0.0745293000000000  8.5487900000000003  3.7716900000000000
  6.3834799999999996 13.5961999999999996  8.9220699999999997
  8.3889399999999998  9.2277900000000006  1.9422500000000000
  7.6608599999999996 10.6371000000000002  7.1595899999999997
  9.2449100000000008  7.1959000000000000  0.8615270000000000
 14.3089999999999993  7.5039999999999996  5.8475099999999998
  2.7301099999999998  9.2798499999999997  0.3529880000000000
  9.4366000000000003  3.7531300000000001  2.2213200000000000
  8.7072800000000008 13.6266999999999996  8.1046999999999993
  8.4313599999999997 14.0342000000000002  5.8668100000000001
 11.1384000000000007  9.5141700000000000  7.0757899999999996
  4.6481599999999998 12.1776999999999997  5.8621800000000004
  9.5994499999999992 11.4354999999999993  8.4007400000000008
  3.1189399999999998 10.5145000000000000  2.3318900000000000
  8.3882399999999997  4.2537599999999998  7.4738199999999999
  9.4982900000000008  2.5186700000000002  4.1908899999999996
  1.8146300000000000  7.2200699999999998  6.7717900000000002
  4.8310199999999996  9.3113600000000005  8.6032200000000003
 13.5355000000000008  8.7188700000000008  7.6475700000000000
  4.7432699999999999  5.6052499999999998  7.4090600000000002
  8.7101900000000008  2.5749000000000000  0.3461050000000000
  9.5452100000000009 11.2121999999999993  1.5964400000000001
  7.6469699999999996  8.4743600000000008  6.4546200000000002
  2.7985099999999998 10.6128000000000000  5.7987200000000003
  7.2298900000000001  6.2682099999999998  1.2742300000000000
  4.2573800000000004  0.0538871000000000  5.2320099999999998
 10.0152999999999999  5.8566000000000003  6.7624000000000004
  7.8103400000000001  2.9581200000000001  5.6111399999999998
  2.4693600000000000  1.5369100000000000  5.7818399999999999
  0.4197960000000000  4.5424199999999999  3.6883599999999999
  4.1689100000000003  4.9959899999999999  5.1718400000000004
  9.7251700000000003  0.4625670000000000  0.5059160000000000
  9.8896400000000000  0.3096090000000000  4.3237699999999997
  2.5895299999999999  5.8669500000000001  8.5450700000000008
  6.1673700000000000  8.4549500000000002  1.4077500000000001
 11.3384000000000000 10.2141999999999999  2.7485200000000001
  6.4604499999999998  2.5528300000000002  0.4440060000000000
 10.8566000000000003  5.5326599999999999  1.6356599999999999
  2.4832100000000001  3.4179599999999999  4.3873199999999999
  6.5323500000000001  0.9593500000000000  5.9155499999999996
  2.0153799999999999  3.6080000000000001  0.1516270000000000
  5.2062999999999997  9.7166200000000007  3.1122000000000001
  4.1905200000000002  8.8661100000000008  5.0722199999999997
  1.4034700000000000 10.5244000000000000  3.8443900000000002
  5.7447800000000004 11.4253000000000000  8.0187500000000007
 14.4117999999999995  3.8729900000000002  1.2656400000000001
  6.2074800000000003  4.2389500000000000  4.2716799999999999
