 H Si 
 1.0000000000000000
    14.5549806952576493    0.0000000000000000    0.0000000000000000
     0.0000000000000000   14.5549806952576493    0.0000000000000000
     0.0000000000000000    0.0000000000000000   10.4209609645961869
 H   Si 
   4  95
Cartesian
 14.3965999999999994  8.0656999999999996  3.2377400000000001
  9.7875300000000003  2.9836399999999998 10.3781999999999996
 12.5886999999999993  7.4953500000000002  6.8683100000000001
 10.7995999999999999  2.7404099999999998  1.7910200000000001
 10.6250000000000000  7.2590599999999998  5.1185099999999997
 13.5652000000000008  3.0524300000000002  7.6398900000000003
  8.4260000000000002  4.3532599999999997  2.2546100000000000
  6.0113000000000003  2.2221099999999998  7.5236099999999997
  1.9850200000000000  8.4607799999999997  1.0405500000000001
 11.5755999999999997 12.2383000000000006  7.0459100000000001
 11.1181999999999999 13.8635999999999999  2.4535499999999999
  7.0157100000000003 11.1211000000000002  4.8060299999999998
 13.2763000000000009 10.4707000000000008  8.0381400000000003
  0.6880300000000000 13.0833999999999993  6.3572199999999999
  8.8766700000000007  7.4099599999999999  6.7792199999999996
  2.9293399999999998  9.9557599999999997  4.9568500000000002
  8.3721899999999998 11.1485000000000003  8.4341799999999996
  2.1683200000000000  1.6423200000000000  3.5561900000000000
  9.8995499999999996  1.6214400000000000  7.2523900000000001
  2.2071900000000002  3.4714900000000002  2.0495299999999999
  4.5895500000000000 10.8566000000000003  1.8317699999999999
 11.9870999999999999  4.8375700000000004  8.0386000000000006
 13.1801999999999992 13.7987000000000002  3.5927799999999999
 14.3643000000000001  8.4078999999999997  1.8468899999999999
  0.2013880000000000 12.8115000000000006  0.6115220000000000
 12.0836000000000006  6.7490300000000003  9.5192999999999994
 11.7802000000000007  3.4071799999999999  4.7388100000000000
  7.0160900000000002  3.7763599999999999  0.1269190000000000
  3.3065500000000001  4.7178199999999997  9.4797799999999999
 12.9255999999999993 10.1538000000000004  1.6317900000000001
  1.7474400000000001  0.3692160000000000  7.3743800000000004
  8.8608700000000002 14.4883000000000006  5.9890200000000000
  4.2577100000000003  3.0757900000000000  6.1077500000000002
 14.0092999999999996  6.3107400000000000  0.6232870000000000
 13.9442000000000004  3.4503100000000000  3.8432900000000001
 14.2492000000000001 11.9062999999999999  2.7744100000000000
 12.9635999999999996 13.7691999999999997  5.8614899999999999
  9.1222600000000007 12.7005999999999997 10.0424000000000007
  1.4156899999999999 11.9527999999999999  4.2695400000000001
  0.5430530000000000  5.0980800000000004  2.4883899999999999
  3.2924699999999998 10.1739999999999995  0.0815378000000000
  7.6041999999999996  4.5095700000000001  4.4625100000000000
  2.6335000000000002  2.5052200000000000 10.3079999999999998
  1.9873300000000000  5.7716900000000004  6.1530699999999996
  4.7696800000000001 11.6812000000000005  5.3899200000000000
 14.3259000000000007  1.2244500000000000  2.7670699999999999
  5.5298100000000003  3.4171900000000002  4.3160600000000002
  9.9307599999999994  1.6263099999999999  9.6942500000000003
  0.5429929999999999  3.8551700000000002  5.9196600000000004
  5.1279500000000002 13.1646000000000001  7.2505400000000000
  9.1283700000000003 12.0180000000000007  6.2415500000000002
  0.5861550000000000  1.7397499999999999  9.1822999999999997
  7.4561400000000004 12.5074000000000005  2.6914799999999999
 13.9628999999999994  0.5249710000000000  0.5463140000000000
  6.2605100000000000  8.0635499999999993  8.9729799999999997
  3.3745900000000000 13.7678999999999991  8.6337100000000007
  9.5502400000000005 11.8253000000000004  1.7169700000000001
  6.0453500000000000  1.1437999999999999  3.8768300000000000
 10.9588999999999999  5.0985199999999997  6.0214900000000000
  6.2139800000000003  1.6586000000000001  9.8709699999999998
  3.4669900000000000 12.5868000000000002  3.3666700000000001
  4.1649900000000004  0.5254259999999999  0.1371620000000000
  6.3273500000000000  7.0623100000000001  0.6229510000000000
  3.8763399999999999  5.0275699999999999  7.2293700000000003
  2.4472100000000001  9.4509000000000007  7.2456500000000004
  5.4720199999999997  8.6837700000000009  2.3697200000000000
  6.5227300000000001  0.2304470000000000  6.1301699999999997
 13.5371000000000006  7.9115200000000003  7.9716100000000001
  8.6129700000000007  8.6480399999999999  8.6843800000000009
  5.1325900000000004  5.0178700000000003  0.6653340000000000
 12.9968000000000004 11.5129999999999999 10.1097999999999999
 11.3912999999999993 13.0251000000000001  9.3810599999999997
  2.4788399999999999  6.0929099999999998  3.7577400000000001
  7.1570000000000000  6.9132699999999998  5.3404699999999998
  6.0162399999999998 12.6348000000000003  0.7369700000000000
  0.8769470000000000 11.2294000000000000  7.8502400000000003
  9.6681500000000007  0.5844440000000000  3.6620400000000002
  7.1391299999999998  8.8670700000000000  4.0721100000000003
  5.9615600000000004  6.1756900000000003  7.3007499999999999
  4.6150099999999998  9.8429900000000004  8.5832599999999992
  2.1634799999999998  2.0446200000000001  5.8250099999999998
  7.1491400000000001  4.3507499999999997  7.9712899999999998
  2.0294699999999999 12.0553000000000008  9.5771700000000006
 10.5123999999999995  9.5766399999999994  1.8403200000000000
 10.0328999999999997  7.8937299999999997  0.1090120000000000
  7.7070999999999996  0.1907900000000000  2.5856900000000000
  9.3324800000000003  8.1161799999999999  3.3757400000000000
 12.1969999999999992  1.6443800000000000  6.3400800000000004
  6.1781499999999996 11.6572999999999993  8.9197799999999994
  3.3048600000000001  8.3471200000000003  3.2850000000000001
 11.5824999999999996  0.3299240000000000  0.2347310000000000
  8.1168700000000005  0.3331410000000000  0.0129760000000000
  4.0334399999999997  0.2211520000000000  2.7079200000000001
  8.9197600000000001  3.7799399999999999  6.4606899999999996
  8.5977499999999996  6.6269400000000003  1.4546399999999999
  1.3530300000000000  7.3213299999999997  7.7805099999999996
  4.0862999999999996  4.6178999999999997  2.8996200000000001
 10.1370000000000005  2.8875000000000002  3.0764300000000002
  1.6627099999999999  6.5904499999999997 10.0629000000000008
