 H Si 
 1.0000000000000000
    14.5906239619226561    0.0000000000000000    0.0000000000000000
     0.0000000000000000   14.5906239619226561    0.0000000000000000
     0.0000000000000000    0.0000000000000000   28.6612245000000030
 H   Si 
  13  98
Cartesian
  6.7816466999999996  5.1818984199999996 18.2907802100000012
  9.5212208799999996  1.9743689000000000 17.7594919699999991
 11.3933953599999995  0.4598541300000000 19.1982574499999998
 14.6456676500000000  0.6638894600000000 11.4213435400000005
  7.1602113000000003  2.6483731300000000 17.4849779800000000
  8.6038551400000003  3.5411251300000002 19.3405966300000003
 10.9306862700000007  3.0946083299999998 19.3460721000000007
  8.1859807799999995  3.0486854100000000 10.9988515299999996
  3.6204522699999999  6.6706370200000000 15.7182204100000007
  7.0547168700000000  4.8858636500000001 18.9185632900000016
  4.1889051700000000  4.5098718699999996 19.0238795900000000
 12.0338440000000002  1.8963657899999999 16.9283720899999999
 11.0686859200000001 14.4118453199999994 18.8053267999999996
 12.1474797399999996 11.3814979399999991 17.4276036400000010
  2.4820532900000001  0.0569919500000000 18.2283965300000013
  3.9095406499999998 11.1341231399999998 19.0825070100000005
 13.8199605200000004 14.0113755799999993 14.5027107399999995
  9.7574283699999995  3.2613583300000002 18.4693268400000008
 14.1838677099999995  1.9584928600000000 12.3440107900000005
  8.8061574900000004  9.3689963899999995 12.9682182800000003
  7.5714589400000003  6.6839377799999999 10.4910247499999993
 14.3177683899999995  5.3799874499999998 11.0648313500000004
  6.5220090900000001  6.6013752099999996 16.0685484000000010
  6.8161151599999998 13.5748985399999995 18.5246308400000004
  4.3697421099999998 13.5041576899999995 16.0061319500000003
  6.6864452700000001  2.3154473599999998 16.1066229800000009
  6.4585151999999999 12.9566111900000003 15.2445391099999998
 10.1241450000000004  1.4638902199999999 14.5030881500000000
 13.9422359300000007  6.8424843199999996 12.8051319899999996
 12.0860926400000004  6.4829185200000001 14.1833104799999994
  8.2402692700000006  2.8626773100000000 14.2987964099999996
 12.1301545300000004  2.5823303800000001 11.6203631400000003
  6.9263413500000004  6.0531174600000002 12.6177382300000005
  5.6842705200000001  7.9551923300000000 10.2653274299999993
  2.2214407100000000 10.2018947099999995 14.7385763500000007
  1.2567663899999999 13.3944115900000007 13.4761765899999997
  1.7248706800000000 10.6963654500000001 18.2035619199999985
  4.1903478400000003  3.9352454099999998 13.9614193300000000
 10.4201530499999997 12.9595856299999994 17.7386201700000008
 12.0001695099999992  4.7394539000000000 10.9700917699999998
  3.0446670299999998  9.6673942900000007 12.6147424600000004
  0.2500058200000000  8.9289278299999992 10.2024002399999993
 10.7184961500000000  9.2764313200000004 10.5229434299999998
  0.7085060900000000  6.8307795999999996 16.1996523699999990
  9.6893331400000005 14.0754650500000000 15.7501110499999992
  8.7243058900000001 12.8158577099999995 12.0308191999999998
  1.4014659800000000  6.6639845199999996 13.9677166199999991
  1.2531681200000000  6.9190628900000002 10.0652004399999999
  2.8657439700000000  6.7610181999999996 17.0059157899999995
  5.3936772199999998  4.4479619100000001 16.0040763300000002
  5.5264425299999997  4.3242528399999998 12.0996596000000007
  1.7595622600000000 10.4732991200000001 10.8344179799999996
  8.4572021799999995 11.9432908100000006 18.5512572099999993
  5.0777979499999999  9.9068474900000005 17.4304087299999999
  2.8531465900000001  0.7514857000000000 10.3901402800000007
  8.8588477900000004  6.3940223600000001 15.7661544199999994
  8.6746101499999995 10.6573324899999999 11.0366136099999999
  0.5817639300000000 12.3496950600000002 11.4733277099999995
  8.4009881300000000  9.9171476500000004 17.3001697800000009
  9.0669167200000000 14.7768251999999993 10.8061131600000007
  5.6793062699999997  7.4681729700000004 13.9974259199999995
 10.7413240200000004  0.8960802200000000 12.2854368500000000
  4.2998929600000002  1.5935805999999999 13.6463675200000001
 11.8962854799999995  7.7551075699999998 16.2167047500000017
  2.9511162700000000  9.2042364400000007 16.7840866200000001
  3.4421760500000000  7.4006879000000003 12.9446952199999998
  2.7706463200000000  3.0184438600000001 10.5398811899999991
  9.4374696599999996  7.6231721700000001 11.5222258499999999
  6.6949629200000000 10.7054905999999992 15.8771698200000007
  1.8882114500000000  4.3586299500000001 13.9969929600000000
 14.4344598800000004 10.3560736099999993 14.8973470999999993
  2.7412717500000001  2.2655542000000000 17.1024412400000010
  3.0308459200000000 -0.0302269500000000 12.5824964500000007
  3.6812526600000002  4.4731432099999999 17.6297222799999993
 13.9916246500000003  8.7398909200000006 16.5459893300000012
 13.8438216900000004 12.3193842900000003 16.1038025599999983
  7.5336579199999996 14.5443576100000005 16.5312939900000018
 12.0359095099999998 13.6469711799999995 12.9904502300000004
  7.2793897400000001  2.7680976899999998 12.1413959800000004
  8.7350808700000009  5.1272009100000000 13.8318681399999992
  1.2884047400000000 12.7846637800000007 17.1840836699999997
 14.0575515899999992  1.6955038700000000 14.6719995999999995
 12.9899802700000002  8.6600482900000006 11.5899588799999993
  0.9385600100000000  3.1323184899999998 15.8190714600000000
  6.6964595100000004  8.2559210099999998 17.8075634399999991
 10.2541268900000002  5.0589023299999996 17.0745935799999984
 10.6018905199999995 10.3458080700000004 14.1845238800000004
  4.4969260899999997  1.2359068900000001 15.8948426900000008
 12.0672933300000000  4.6577450200000001 15.6032151500000005
  3.6002848400000000  6.7014116599999998 10.6698737599999998
  6.0229849099999999  0.8813328900000000 12.1502185199999992
 14.1061184799999992  4.9076254800000001 16.7166708600000007
  4.4667592400000000 13.2665735100000006 18.3201705200000013
 -0.5924981600000000 10.0559637199999994 18.5129796700000000
  1.0650851100000001  3.6617066199999999 11.9090638900000005
  4.6640837700000004 12.8625064800000004 12.0342372900000001
 12.0104483900000005  2.3691035000000000 15.5107419600000007
  2.4795742900000000 12.4529354800000007 15.2132697700000001
  5.1367364200000001 10.5888115999999997 12.2042646700000006
 12.7859460499999997 10.3438406399999998 13.1583689499999998
  6.5899289100000003  9.6104029200000003 13.8212900199999993
  6.3627961300000004 10.1316104500000002 10.2724516900000005
 12.8443251200000006 12.0314063000000004 11.5558030200000008
 10.6587922800000001  9.7405591699999992 16.4458246400000014
 15.3809573200000003 -0.2858004800000000 10.1680316200000007
 12.2123918299999996  6.0450958300000002 17.8812068199999992
  4.3858669499999996  4.5488312300000002 10.1218416300000005
 10.1380359599999998 12.6236997500000001 13.9407239799999996
 10.5684287099999992  5.8529831000000003 12.5303311700000002
  4.9997685599999997 -0.1939493000000000 10.2637696399999996
  6.7007976300000003 13.4320984699999997 13.0045433500000005
