 H Si 
 1.0000000000000000
    14.5595896387012846    0.0000000000000000    0.0000000000000000
     0.0000000000000000   14.5595896387012846    0.0000000000000000
     0.0000000000000000    0.0000000000000000    7.2457561337602128
 H   Si 
  21  50
Cartesian
  9.1911600000000000 13.6409000000000002  1.9000900000000001
 11.4614999999999991 11.2296999999999993  1.1383000000000001
  0.3534840000000000  1.3911500000000001  5.6945399999999999
 10.7175999999999991 12.5452999999999992  2.7802500000000001
 14.3653999999999993  3.4309599999999998  4.7346599999999999
  9.7954899999999991  1.5196900000000000  7.1823100000000002
 13.0306999999999995  1.4843500000000001  1.8266700000000000
  0.2791570000000000  1.0669500000000001  0.8245980000000001
 10.7987000000000002  1.3742200000000000  2.7170200000000002
 10.3500999999999994  1.0103000000000000  2.2572299999999998
 13.1203000000000003  1.1415999999999999  6.1493000000000002
 12.5988000000000007  0.6160639999999999  6.2699100000000003
 12.6565999999999992 12.6700999999999997 -0.0378003000000000
  8.6474100000000007  2.4062399999999999  4.4227800000000004
 14.4520000000000000  1.3863200000000000  3.3484600000000002
 12.1890000000000001  1.9545600000000001  4.5352100000000002
 10.0449000000000002  0.9819620000000000  0.3747610000000000
 12.3302999999999994  1.7241200000000001  1.9378000000000000
 12.8719999999999999 14.0641999999999996  4.3761799999999997
 10.4301999999999992  5.4708300000000003  3.3191899999999999
 11.7939000000000007  2.4677099999999998  4.1892199999999997
  3.0582699999999998  6.9092900000000004  1.1884600000000001
  5.2747099999999998  5.0240099999999996  4.9139600000000003
 11.0736000000000008 11.1933000000000007  2.5528700000000000
  0.8900220000000000 10.9303000000000008  0.0943472000000000
  0.5728300000000000  2.1370600000000000  4.4856699999999998
  8.8212899999999994 10.1485000000000003  2.5165999999999999
  7.2472099999999999  2.4940699999999998  4.7150600000000003
  5.6274899999999999  8.8529499999999999  5.8775899999999996
  6.4546500000000000  0.3842100000000000  0.4881310000000000
  2.8029799999999998  2.4330900000000000  4.6792800000000003
  4.9938700000000003 10.6626999999999992  1.2655799999999999
  4.0733300000000003 10.6155000000000008  5.2390100000000004
  3.3191700000000002 11.7155000000000005  0.0995979000000000
  6.5343499999999999  7.0494000000000003  2.0967099999999999
  8.2893100000000004  6.2611100000000004  5.5143399999999998
  7.7041899999999996  9.8723399999999994  6.3110299999999997
  3.5196200000000002 13.7356999999999996  3.2279599999999999
  9.8019900000000000  6.7782000000000000  3.7337799999999999
  3.8920200000000000  0.4044210000000000  5.0603400000000001
 12.9588000000000001  9.4015299999999993  5.3281999999999998
  3.8134000000000001  2.8276800000000000  2.5456699999999999
  1.2472200000000000 13.2262000000000004  2.9293800000000001
 11.2134999999999998  7.7495399999999997  5.5440500000000004
  5.0218400000000001  8.2927700000000009  0.8326640000000000
 13.2304999999999993 10.8496000000000006  3.5713499999999998
  6.1983800000000002  4.8339800000000004  1.2425100000000000
  7.3583100000000004 11.1199999999999992  0.9234650000000000
  0.8774050000000000 10.8729999999999993  2.5198499999999999
  4.4493700000000000  0.6809880000000000  1.5382800000000001
  1.1971000000000001  6.9972200000000004  6.8454300000000003
  9.1216100000000004  7.9964100000000000  6.7716099999999999
  0.7333710000000000  9.0544899999999995  5.9264700000000001
  3.1857700000000002 14.1821999999999999  7.1955400000000003
  2.9468100000000002  7.3759600000000001  3.4408300000000001
  3.8061300000000000  4.6109999999999998  0.9272480000000000
  6.3108399999999998  0.4017030000000000  5.2513199999999998
  8.4438899999999997 11.0883000000000003  4.5663400000000003
  5.8370899999999999  3.6757499999999999  3.2245100000000000
  0.9845150000000000 14.2642000000000007  0.8704769999999999
  3.3484500000000001  4.2519400000000003  5.8973800000000001
  8.6175400000000000  7.8234399999999997  1.9252499999999999
  7.0549099999999996 13.0052000000000003  3.8823699999999999
  7.6998400000000000 13.2727000000000004  1.6954199999999999
  1.7709600000000001  5.6971200000000000  4.8635099999999998
 13.9422999999999995 13.0427000000000000  4.4584000000000001
 14.1256000000000004 12.8021999999999991  6.7758799999999999
  4.9548300000000003 11.7401999999999997  3.4688300000000001
  2.1991600000000000  9.5746699999999993  4.0437000000000003
  5.0660900000000000  7.2172200000000002  4.1109999999999998
  7.1294199999999996  4.4290500000000002  6.2567899999999996
