 H Si 
 1.0000000000000000
    14.5261084410637018    0.0000000000000000    0.0000000000000000
     0.0000000000000000   14.5261084410637018    0.0000000000000000
     0.0000000000000000    0.0000000000000000   28.6666859999999986
 H   Si 
   4  92
Cartesian
 10.1733753599999996 13.1980746199999999 11.8196680500000006
  4.7318223499999998 12.1229000899999999 13.2299088099999995
  5.1436976000000003 12.2448548099999996 13.9308926900000003
  4.6050181400000003  3.6419464300000000 13.0822611900000005
  6.9997556400000001  3.7203070700000000 14.4150840900000006
  4.6966862899999997  0.2042469700000000 18.3246470899999991
 13.2671672199999993 12.9198714999999993 17.5958033299999990
  1.7605040100000000  8.9519154899999993 15.9311194199999999
  7.9971972999999998  2.1489810299999998 17.5779306800000015
  6.9139421199999997 11.0221371799999996 17.9813552899999998
  5.3422707799999998  8.8511566899999998 13.2156818999999999
  1.8280918200000000  7.1337730800000001 14.4594078800000005
  3.8752040999999999 11.5183466299999999 16.4779636200000006
  6.9351628800000000  9.4004427100000001 11.6421319400000005
 10.8713450900000002  8.9347486000000007 17.4892884200000012
 14.1186784400000001  9.7562172100000009  9.8525992400000000
  0.0831078300000000  8.6839532300000002 17.5201847599999994
  5.4212712099999996  6.5937343500000001 13.6152889300000002
 10.2701184600000008  4.6994593199999999 12.5859441600000004
  8.8492354700000000  6.5696637300000003 12.7748641200000002
  3.9022213600000000  8.9521632100000001 16.8493598499999990
  3.9366585199999999 11.6701409100000006 11.5339241500000007
  1.1542498999999999  0.3394616000000000 10.8352949100000000
 14.0063437999999998 11.2147659599999994 13.1335414799999999
  0.9919670300000000  3.4213414900000001 15.6579027300000000
  4.2330679000000000  2.4079744700000001 17.7671169000000013
  9.6192615200000002  1.3564717799999999 10.4646224700000001
  1.2971163200000000 12.6127178299999994 13.9011861099999994
  8.6767492100000005  2.4727052600000001 15.3514990499999993
 14.2583134299999994  0.3215001400000000 16.9101459500000004
 13.1108579699999996  2.8245107900000002 12.3822027400000003
  3.2794032799999999  9.7928911200000002 12.7282603200000004
  9.9877080800000009  6.8818884300000001 17.1445513900000002
  5.7176611599999996  5.5761525000000001 11.5303910199999997
  0.2999421800000000  6.3058446799999999 17.5859733799999987
 11.6055427000000009 12.7698393499999998 15.9770818499999994
  7.4284696400000003  6.0387774800000003 14.6409549099999996
  2.5997892000000000 13.5021868200000004 12.0935891600000005
 11.9196459299999997  1.2005821200000000 11.0555413900000001
 12.0109824500000002 10.4617656199999995 10.2683173700000001
 12.3274309300000002 10.8523370099999994 14.7422082600000000
 10.5505466499999994  8.1513631699999998 12.5701238199999992
  6.7610004200000002  3.5207246699999999 12.0667609900000006
 12.7957908099999997  6.8099917699999999 14.9460286799999995
  8.0023441799999997  0.3340677300000000 11.9484527699999994
  3.6214254900000000 13.8834254599999998 16.4421164699999984
 12.9593632700000008 12.2540402799999999 11.3330054600000008
  9.3705859000000000  9.9872421800000009 16.0832646500000003
  5.6310980199999996  9.5524372900000003 15.3588295600000002
 12.6607323199999993  7.1832382399999997 12.6593389599999995
 13.5647613099999997 14.2194097799999994 10.2066377799999994
 13.1139968800000002  4.5410931100000003 17.6046757400000011
  8.3103383100000006 12.8069247700000002 18.6193315800000008
  3.7385319799999999  4.9700353499999999 10.3676668200000002
  7.0050918199999996  0.0454995400000000 17.6616139200000006
 12.2435897199999992  2.1470016599999999 14.5072623499999995
 11.4789312999999993 13.7762346499999992 12.2677976199999996
 12.7609183200000000  8.9362501600000002 16.1357593000000001
  5.1257270100000003  0.3778017100000000 14.8947640000000003
  3.5149336700000000  3.7912123300000000 14.1285511699999997
 13.5586143400000001  2.4829831100000002 16.4217121800000001
  7.7333151100000004  6.7546073199999999 16.8846354299999994
  6.1063973799999998 11.7548356900000002 15.8781494100000007
 10.0196653199999997  9.4234855799999995 10.6428267099999996
  5.1448663799999999  2.7008717000000000 15.5049796200000003
  2.3277314800000002  3.6412073399999998 17.5681047100000001
  8.8148063699999994 10.7231251400000005 12.1907039499999996
  6.1777292399999997  3.5681413300000000 17.6921497899999984
  1.7530311900000000  8.0439682700000006 12.3387753999999994
  6.0249863599999998 11.3244320999999992 10.5533037899999993
  7.4170340499999998  7.1696043200000004 10.9744235799999998
 14.1793941199999995  8.9941332700000007 12.0889680899999998
 10.2512668900000001 10.0303339099999995 13.9130107899999995
  1.8559631599999999  6.2021659299999996 10.8806438799999992
  5.9206618200000003  1.4070838100000000 11.5978935399999994
  2.2461405299999999  4.1936503600000004 12.0155692700000003
  2.2944655100000002  5.6791581200000003 18.5518930100000006
 10.5431597299999993  3.7205698699999998 14.7473322899999992
  1.5191547400000001 -0.0796864100000000 15.4594815899999993
  8.9459121499999998  3.3001394700000000 11.3756216800000001
 11.1836564099999993 14.5225029299999999 14.4320525800000006
  6.0893399199999996  5.7921103199999999 18.1880796899999986
  4.0432500400000002  0.6685450200000000 12.8727530199999993
  3.7197525400000000  5.9562714799999998 15.0279099400000007
 12.3996220800000003  5.0083788900000004 11.7103486799999992
  2.4853014099999999 10.7987727200000005 14.7287431499999997
  7.3861464500000000  9.0520390000000006 16.7324420399999987
  0.8678479099999999  2.2729817799999998 12.1117802999999995
  4.0694643199999998  6.5872936199999996 17.3215861300000000
  9.3784346799999998 12.2507305500000001 16.6277539200000000
  0.2855292800000000  5.6794488100000002 15.3345161000000001
  2.0580137100000000  1.8536436599999999 14.0736905599999993
  7.6051917500000004 12.5856029399999994 11.6643979499999997
  7.1695707200000003 13.7976973399999991 15.4316502999999994
 11.4030440800000008  5.3690433999999998 16.1954971000000008
  8.8380638699999992  0.4243352400000000 14.2136192000000001
