 H Si 
 1.0000000000000000
    14.5549806952576493    0.0000000000000000    0.0000000000000000
     0.0000000000000000   14.5549806952576493    0.0000000000000000
     0.0000000000000000    0.0000000000000000   27.3850726000000009
 H   Si 
  22  71
Cartesian
  3.7862461299999999  6.9279470400000003 11.8262560499999996
  7.5279172200000000  8.3470223699999995 16.6088972000000012
  6.3968125899999997  6.6615298699999999 11.4512355400000008
  8.9623392499999994  5.6956170100000003 15.0500062200000002
  7.7954672399999998  4.0825760400000002 16.2743349500000001
  9.2581011100000001  9.4266229300000006 17.8342626099999997
  3.2165036499999999  6.5069415700000004 16.1381728100000004
  5.8052567699999997  7.0285982499999999 11.7408003200000000
  5.8053744399999996  9.6390444800000008 15.1262941499999997
  5.7884940199999999  8.2009007599999997 13.1960664699999999
  9.5138431000000008  7.5884561100000001 13.7348996000000003
  1.9834019000000001  7.3855868899999999 15.2189449099999994
  8.1043392500000007 10.6427325699999997 16.0174845499999989
  7.9966398400000003  9.2804256100000000 14.1122096799999994
  4.6874232400000002  6.1314857199999997 13.5973827600000003
  5.9150923899999999  7.4265742200000000 15.8700653299999992
  5.0588016700000003  4.7241876300000003 15.4386411999999993
  3.8676307200000002  6.3993849799999998 16.4815161799999998
  6.5102001400000002 10.0651660500000002 10.1779704700000000
  3.8752203000000001  8.3447771599999996 14.6410423699999992
  7.6399866699999999  9.3216487099999998 13.4519328399999996
  5.6298076600000000  6.7952975499999999 16.1462557099999984
  8.3502831499999992  5.3724080000000001 11.5123680000000004
 13.3806650900000008  6.6617660299999999 11.1527475599999999
  8.1989571300000001 13.2735172299999995 13.8957366600000007
 13.6260271700000004  5.6863180900000003 16.9030481600000009
  7.3491242600000000 12.2611588200000003 15.8674524600000009
  1.4730005100000001 11.3064357999999991 15.2680258799999997
  1.6666437100000000  1.8727653200000001 11.1442703499999993
 10.2601522999999997  8.2822525799999998 15.0188492199999999
  6.5402816100000001 11.5527278399999993 10.2564970800000008
  0.0812920700000000  1.6950491900000000 14.9829463900000004
  1.3206190200000001 10.9757075400000002 10.2014455700000006
 13.8997582899999994 13.9469859500000002 15.2372726000000007
 12.0387777299999996  4.6899602700000003 14.3324664199999994
 11.5807707499999992 13.7620593000000007 15.6294116499999998
  6.3287997499999999  1.6323862099999999 15.4233894199999995
  9.5635179200000007  1.8934989300000000 11.2209921099999992
  0.9228320900000000  4.3361416799999999 13.1694870200000000
 14.3439409300000005  3.0853975000000000 11.5160724600000002
 11.0387194300000004 12.7281251300000005 11.6951392199999997
  2.1310291000000001  9.6975425099999999 11.8992539300000004
  5.3755165800000002  1.6249980600000000 10.8105211099999998
 13.3310798199999994  1.5254904700000000 12.9027305699999992
  2.4521276599999999  7.4609786199999997 11.4508572199999996
 13.2353956200000002 12.1144311699999996 11.6181121300000001
  8.5139384699999994  4.2718596399999997 14.9879501000000008
  0.7060916400000000  7.7448180999999998 14.5546946800000008
  7.3563112200000003  2.1532823500000000 11.9705211499999997
 11.0892374700000005 11.4747842200000001 16.1735977599999998
  2.5578009100000001  1.6727802800000000 14.7650123400000002
  3.3860291999999999 12.2393236800000000 14.5054328199999993
  6.7910226099999997  0.4784645100000000 13.4733535300000007
 14.1559089999999994 13.8737551400000001 12.8118328100000003
  3.9814135400000001 10.7795459099999995 12.7941617900000004
 11.5927243999999998  5.4565915800000004 12.0904027700000007
  0.0413051800000000 12.1951998199999991 16.7290057700000006
  5.0438895900000000 12.1836102400000001 16.1333180300000016
  5.3522747400000004 14.3246795400000000 16.8456901200000004
 10.4565603899999999 13.9344443699999996 13.6245999799999993
  3.5893581700000001  3.0560902500000000 11.0216272800000006
 10.4010224900000008  8.9144710200000006 10.8196617499999999
  8.1398656400000000 12.2820336900000004 11.7347216400000001
  7.3975871399999997 13.5996787200000000 17.8279348199999994
  1.6539097599999999 14.2054007700000007 11.7482118500000006
  4.6138056399999998 12.3326857899999993 11.1898916100000001
  7.1186869100000001  4.1479022800000003 13.1287919599999992
  3.1135097400000000  3.4451920800000000 13.2775572499999992
  8.7038347700000003  9.2284110399999992 16.4873265999999994
 10.4739189400000008  2.9927979100000002 14.8717717999999994
  8.2193046200000008  0.6181114200000000 16.3811112700000017
  0.6661269900000000  9.8762103799999998 13.7106411599999998
  0.6567761800000000  6.5223000799999999 12.5454630599999994
 13.0702234700000002 10.1948449799999992 12.9451924399999996
 12.7339901799999993  8.8886704999999999 11.0191114399999996
 11.7693937999999996  6.6260508600000003 15.6030144300000000
 10.9286169199999996  1.5914135199999999 13.0795686000000000
 13.1083611199999996 10.3916253500000000 16.5606651099999986
  4.2439800900000000  1.7751245400000000 16.5447415000000007
  4.9580913899999999 14.3941659000000008 12.2349895600000007
 14.1558722299999999  4.0685654400000004 15.1182308100000000
  2.5935168300000000 12.8420353200000008 10.1092644200000006
  9.8681504300000000 10.7546365700000006 12.1278245400000007
  4.9743660600000004  4.7248943800000003 13.9633828900000001
 13.5696417900000004  7.9985188300000001 16.1026493100000003
 10.1618794399999999  4.1243545800000003 10.7283904600000000
 13.6630610000000008 10.7217241300000001  9.7766396499999999
  9.4414376799999999 14.0691844699999997 10.6758676200000000
  9.8464302200000002  7.0503203799999996 12.1022874799999993
 11.0590182800000001 10.3052670800000001 14.1512814999999996
  3.0793360800000000 14.3349027699999994 13.5517193400000000
 10.4686136500000000  1.1880656000000001 16.4398582699999984
  4.9921410100000001  9.0996821699999995 14.0305640599999997
