 H Si 
 1.0000000000000000
    14.5791451707353072    0.0000000000000000    0.0000000000000000
     0.0000000000000000   14.5791451707353072    0.0000000000000000
     0.0000000000000000    0.0000000000000000   28.5413782000000005
 H   Si 
  42  83
Cartesian
  6.9544407100000001  8.9266061000000008 13.6238741799999996
  8.3208225799999997  0.8087436700000000 11.8934612600000005
 10.5780466499999992 -0.0918466100000000 10.3344192699999997
 10.2558839699999993  0.1756009200000000 12.6804025800000009
  9.8867039999999999  8.1314840600000000 12.2302915199999997
  7.7823893999999996  9.2802604800000008 10.5136855800000006
  9.1012849300000003  9.4322702300000003 13.9780224000000004
  7.0579715600000004  6.9390686800000001 11.4489576700000004
  7.7352202099999996  4.5240649599999996 12.9164882799999994
  7.8990093899999998 14.3687845799999998 10.1581654399999994
  7.7877701999999998 11.0461403199999992 11.7980522699999995
  7.5737033000000000  2.7678905999999999 11.0015545899999996
  3.8777265800000000  1.8338079500000000 11.1866455800000004
  5.2011879499999996  9.1146049100000006 11.4864915799999991
  4.6710147900000001  6.3958722899999998 10.3560657400000000
 10.6946086400000002  0.1377440700000000 15.5018650299999994
 11.3083189900000001 12.8856035599999998 13.9860317599999995
  7.3460893399999998  6.2932153700000004 11.6780727899999999
  8.9726305499999999 11.8921589500000007 14.1756925099999993
  6.2429577299999996 10.3578381099999994  8.3727490200000005
  5.3035624099999996  2.3964399699999999 12.7443955500000001
  5.8927839200000003 14.1400238399999996 14.3791746800000002
  8.9467220199999993 11.8449406499999998 14.9282086500000002
  8.9643452999999997 13.0818603699999993 11.7909943399999992
  6.6550213500000002 13.1078577099999993 11.3148153800000006
 10.6507604600000008 13.1750461699999999 14.2047178600000006
  6.1224037400000002 14.8926006599999994 10.7904207400000001
  6.9152849400000003  1.1808696500000000 14.4227561000000009
  7.1362268400000000  3.3665228100000002 10.9778360100000008
  8.1572344200000000 14.3676468199999992  9.4653965699999993
  8.1166812999999998 13.9381902199999992 13.9574213399999998
  8.0521156699999992 13.4880651000000000 13.3710900099999996
  9.5335549000000004 12.0516903600000003  9.6961511100000006
 10.9374442300000005 10.9711692999999997 13.0893447700000003
  6.2899135399999997 12.0060386200000000 13.4140417200000002
  5.5659322500000004 15.3590751700000006 10.6359828099999998
  7.2040725300000004  8.8261372700000003 10.6122157300000008
  4.2579468399999998  9.0854562399999992  8.4306196500000006
 10.6571548600000003 15.2993221699999999 10.1745481299999998
  9.6018390100000008  2.5644247999999998 11.7190288400000000
 10.8780232199999993  0.4882098700000000 14.8324328500000000
  9.1032016700000007 10.0293293699999992 13.5350953500000006
  5.5212519899999997  4.7183880199999999 15.0758986999999998
  1.2688145900000001  7.9973137799999998 15.8425298600000009
 10.0883308899999999  3.5016515400000001 17.1314415800000006
  4.0797430300000004  2.9041788400000002 15.2518350799999993
  7.6774213299999996  4.1388104999999999 14.3539874500000000
  9.1479635199999993  6.8489337399999997 16.7435463499999990
 12.9345585399999994  3.5450829900000000 11.5418368699999991
  4.6476393600000003 10.1080434599999993 15.5746761399999993
  4.8266218399999996 10.5220482600000000 11.1457792500000004
 10.0650098799999999 12.7880940800000005 10.8619540899999993
 12.1122896200000003  5.7777779000000002 12.1180080300000004
  5.0766033500000001 13.9635156800000004 15.5981655400000001
 13.1782487499999998  4.8394358200000003 15.5840838300000009
  2.7354994300000000 10.6927340500000003 12.1142860500000005
  0.4940947800000000 13.0151272799999997 18.1505274099999987
  2.4698169600000002  8.2997827700000002 12.1243090799999997
  0.6133854800000000  3.9304301300000000 14.8669916200000003
 11.6645738600000008 11.5227445399999997 11.9116346400000008
  4.8293248200000001 10.3953077500000006  8.8631473399999994
 11.3699285400000001  8.0792200399999992 12.3205557300000006
 11.0710991599999993 10.2594731400000008 16.3653062899999995
  3.9452004199999999  9.4080236500000005 17.7514153999999991
 14.0266441499999992 10.0532144399999996 13.7564874100000001
 13.6435571699999993 13.4117684700000002 14.8392409199999999
  8.9065304899999997  1.4831743200000000 16.8628235699999998
  3.8003191300000001  2.3273402600000002 12.6452767799999997
  6.3033007200000002  9.2083133700000008 18.1732776099999995
  2.5598921200000002  4.1964436500000000 11.7917679100000008
 12.6253501600000000 14.0117524299999996 17.7870640100000017
 13.6239046500000001  7.1750616599999999 15.4136496300000001
  3.7074365899999999 11.6778434999999998 18.1133957400000014
  6.8056001699999999  4.2992052899999997 18.5665542099999996
  3.8021985900000002  6.3218682099999999 11.5580825300000001
  5.5559240200000000 11.9958890300000007 16.7286227399999987
 14.7321983400000001  8.7762309799999993 18.6257770600000008
  2.9239205899999998 13.4875360400000002 14.8113708600000002
  7.3761512900000001 11.2817739800000005 17.9460340100000018
 12.3762260600000005  3.7206316199999998 17.4737422900000006
  3.0474360599999999  0.7434666700000000 18.2648818199999994
  9.4517157800000007  1.4369928900000000 12.6997175099999993
  1.0460365700000001 10.2478429400000000 15.3871838800000003
 12.1261416799999999  8.8884788599999993 14.5159428699999999
  4.8919085400000002  1.3314435099999999 16.8732643499999995
  2.6139741999999999  7.1783271700000002 14.1757598399999996
 11.4660608699999997  4.6255928300000004 14.0227311300000004
  2.9238401600000001 11.1692574199999992 14.3812549999999995
  0.0825039300000000 10.8489610899999995 17.4130325100000007
 13.1709239599999997  1.1580661200000000 14.6801358799999999
 12.1171465699999992  9.6164833699999992 10.6791027900000000
  0.1867142000000000  8.6673854499999994 11.9631701199999991
  5.9686836899999998  8.3973473599999995 14.6010591099999996
  0.5387802700000000  1.9301825300000000 13.6261534500000003
  0.5764835100000000  2.6242980199999999 11.3740469500000003
  9.3701276799999995 11.8639413999999999 16.8833991499999989
 13.4154708599999992  1.6239628300000000 17.0538124000000018
 10.4711290100000003  6.5701963900000004 19.4327299400000015
 13.7384505200000007 12.1666607100000004 12.8280291299999991
 11.7466213499999999  2.4382444699999999 13.2722467300000009
  8.2003899400000009  1.8858285299999999 14.6263310799999999
  8.9457356899999994  5.1203893799999998 18.3763407500000007
  6.5413315499999998 11.8068897499999999 11.9753096600000006
  1.2303206799999999  1.6326919900000001 17.1355754100000013
 13.0065169399999991  7.3970342200000001 17.7761171199999986
  1.3833240700000000  5.4091475100000004 13.3339826200000005
  6.8703360800000004  2.1735849900000002 17.7529417599999988
  3.1950437400000000  5.6200297299999997 17.6292792399999989
  2.3551315000000002  0.5051846400000000 13.1644187899999991
  4.7892927900000002  6.5231986199999996 13.7445260299999994
  1.0517663600000000 14.0154220100000000 16.0900138199999994
  5.5197126799999996  5.6718179500000003 17.1980117300000011
  2.5585040999999999 13.2833413199999999 19.2752049499999991
  9.5957144000000003  4.9912566099999998 15.3623813100000000
 10.8290842600000001  8.2576743100000005 17.6774659199999995
  6.8769160400000002  7.5697432200000003 16.6391635899999990
  1.1147112400000001  0.0220731800000000 11.2393168299999999
 14.0709201900000007  6.6631137699999998 12.9089073600000006
 12.7581664400000001 11.9401824699999999 16.5557283800000015
  2.2240037799999999  7.7559370300000001 17.9318983299999992
 15.4593416300000008 12.0411887600000007 11.2377498100000004
 14.3366345800000001 10.0890701400000005 10.1334786700000006
 12.5634277700000005  5.4841213800000004 19.0565043400000000
  2.2435971900000000  3.7184909500000001 16.4537064899999983
 10.2206710399999992 14.0587700000000009 17.3674173699999983
