 H Si 
 1.0000000000000000
    14.5342042383440404    0.0000000000000000    0.0000000000000000
     0.0000000000000000   14.5342042383440404    0.0000000000000000
     0.0000000000000000    0.0000000000000000   25.2316700000000012
 H   Si 
   4  57
Cartesian
 13.0702078099999994  5.6568091899999997 11.2632148500000007
 10.7776460899999993  8.0179328800000000  9.6326962399999996
 11.1046478299999993  4.8221473699999997 12.9196738399999997
 14.0067678699999991  9.8001574300000005 12.9973266400000007
 10.8680820899999997  7.7552820400000000 11.0804255299999994
  6.7951287999999996  2.6245124600000000 14.8156629700000000
  7.8275812199999999  9.6935463599999991 13.5133862400000009
  2.5400324599999999  3.4315214100000002 13.5610347800000000
  1.6031930599999999 11.8391648600000003 11.5505919699999993
 10.0532873600000006  2.1258236199999998 12.3158901899999993
 13.3421631699999992 12.3640268100000004 14.3865616599999999
  9.2626190899999994 11.1016473300000005 12.2146191700000006
 11.7486818399999997  3.6713167200000001 11.9627913199999991
  1.7463945700000001  6.0997046299999997 11.5432079299999995
  4.6976703100000003  1.1573995200000000 11.1988451100000006
  3.8123115400000001  5.2434140100000004 10.7276168999999992
  5.5505495399999996  6.3651710499999998 13.4325040300000005
 10.7881893800000004  7.0410842100000002 15.2545170999999993
  5.1788686999999998  7.2423030700000002 11.1439139300000001
  8.5864682200000004  2.3939279500000001 10.5134350899999998
  7.1866931100000002 13.1008358099999995 13.9604597800000008
  1.8657551100000000  9.5327019400000008 11.9491292900000001
  9.8486108600000009  5.4655017399999997 13.8376892999999992
  9.4536552000000000 12.8444866700000002 13.8065199199999995
  6.1490702700000002  4.1421897200000002 13.1612709799999994
  2.1692047699999999 10.5978858799999998 14.0482246100000001
  6.2659039999999999  0.6513052700000000 13.5407809900000000
  2.1223344000000002  5.7170423499999998 13.8271091599999991
 -0.3909251500000000 13.7248502699999992 12.0143988700000008
 13.0270284499999995 10.8521312800000000 12.5939107600000000
  1.6473286700000001  4.4000962399999999  9.9412964499999994
  3.1267187600000002 13.8784300799999993 11.0019024800000000
  4.3308858499999996 13.7166817999999999 13.0679580899999994
  4.3118520299999998  3.3234461700000000 12.0541627600000005
 12.8271710300000006 14.5059299700000004 13.7464025000000003
 14.3737504000000005  5.4548116699999998 14.1015464399999999
  8.8365271500000002  3.3598959399999999 13.8891048599999998
  9.0193454699999993  6.4462839399999998 11.8911531900000007
 11.0426535599999998  9.6683098899999997 12.4212922100000007
  3.7165748100000000  7.3941472700000004 14.3890241299999992
  1.7733963399999999  1.8234627999999999 15.1331261099999992
 13.9184204999999999 11.8736722599999993 10.6472692000000002
  7.9990125200000000  4.3100110100000002 11.7019770100000002
  7.1491884099999998  7.7153290600000002 12.4269854300000002
  1.0499162799999999 12.6120511299999993 13.8669928500000008
 12.8628298900000004  7.1364283799999999 14.1458559499999996
  0.4906568900000000  7.9539425499999998 10.9699881099999992
  7.6116082799999996 13.2444731800000000 11.6272400000000005
 10.7163005899999995 -0.0079272600000000 12.8425247900000006
 13.7250301399999994  3.4198112300000001 13.1316109900000004
 13.9870424999999994  1.7442662700000000 14.6709765099999991
  1.3401647400000001  0.6754098200000000 11.6716449200000003
  3.9920675299999999  8.8198271800000008 12.4425715199999996
  4.3847497500000001 11.0669665899999998 13.3615329700000007
 12.9988539200000002  7.0610463699999997 11.8079912300000007
  6.9662267699999996  0.9190966800000000 11.2765041999999998
  9.9361108399999996  9.0152132599999995 14.3524273600000001
  1.0649645400000001  3.0048950200000002 11.7611001200000000
  9.9197370899999999 13.0964119100000005 11.1086519199999998
  2.2707943899999998 14.5732350200000003 13.7747867999999993
  6.2987554000000001 11.0524967000000007 14.6456376699999993
