 H Si 
 1.0000000000000000
    14.5687987817684022    0.0000000000000000    0.0000000000000000
     0.0000000000000000   14.5687987817684022    0.0000000000000000
     0.0000000000000000    0.0000000000000000   28.9764981000000006
 H   Si 
  26  94
Cartesian
  2.0918480200000000  3.8558961599999999  9.3654524499999994
  1.4050955300000001  2.3573494400000001 13.8334859600000009
 13.2311483100000000  3.2260553800000000 14.3223252199999997
  2.6828894900000000 -0.1054411700000000 14.2801496500000002
  1.9027370299999999  1.6000119900000001 18.2900128100000003
 -0.3532991400000000  2.1634147900000000 12.1320149599999993
 13.4935744199999998  0.8746402599999999 16.3083808999999995
 14.5716892900000001 -0.1321764500000000 18.3835822799999988
 12.3382653700000002  2.8002751199999998 12.3881325600000007
  0.3585087900000000 -0.5764798500000000 17.9023697999999989
 15.4253663499999991  2.4775468900000002 19.8926272900000001
  1.0011779100000000 14.9048476799999996 12.6736755199999998
  3.0392511199999999 -0.6221603600000000 18.1895023500000015
  1.9790958700000001  2.0743577300000000 11.4514994100000003
  2.7960628800000000 13.2270057199999993 12.6050013700000001
  3.6054691900000000 12.2011313900000005 15.7275407299999994
  2.8903396899999998 11.0200231399999993 19.6767660400000004
 11.0746206300000001  8.9278655499999999 17.7494304599999992
  7.4639283299999999 10.4035716300000001 13.6437548799999995
  4.8935368700000001 14.0836688100000007 14.2270800499999996
  0.6839812800000000 14.9755338699999996 10.4155840099999999
  0.0694787400000000  0.5080008600000000 10.0158541499999991
 13.6338307699999994 14.2127361600000004 12.3646929300000004
  0.2427186900000000  2.4462607099999998 16.1789076600000001
  1.3316513999999999  0.7485543000000000 16.0534370399999986
  2.3490301800000002  1.0038949699999999 18.2504790600000000
 14.2111531499999995  5.5520355400000003 16.1098659399999988
  2.7486526900000001  4.3330514400000002 10.6051779300000000
  4.5975142599999996 10.6840020700000000 12.8773374199999999
  5.7871545299999996  7.4968956100000002 12.9203343000000004
  8.4379342000000008  9.9200114399999997 17.0167238099999985
  8.4796665699999991  5.9586012999999998 12.3503170099999995
  7.7402280499999998  7.4022584000000000 14.1056251199999991
 11.9662631299999997 12.9390514400000001 17.6688278899999993
  8.4214614500000007  7.7157844700000000 17.9637875899999990
 14.2367853199999992 11.6213650299999998 10.0165690499999993
  9.6922236900000005 12.6583760600000002 14.9839100100000007
 10.7161908100000005  4.9861353499999996 14.8980125200000000
  7.2970812799999996  9.9992947900000004 10.2992183199999996
  6.7992450599999996 14.1697531600000008 16.3167212200000016
 12.0670162199999993  0.4776006500000000 16.5171871500000016
  1.8549965700000000  8.9033419299999998 16.0259368500000008
  7.5671578500000001 13.3607837600000003 14.2814888700000004
  6.1558274500000003 10.6084277599999997 16.4753209699999985
  6.3688578500000004  4.6556462800000000 16.2187027400000012
 12.5173176000000002  3.5537746399999999 19.1616965199999996
 11.7602385300000005  5.7001662299999998 10.6723941500000006
 10.9638975199999997  2.6975962400000002 11.8256747699999991
  9.9441775299999993  4.1116965399999996 16.8859667299999998
  7.9344759199999997  2.6899756699999999 14.1246847399999993
  1.0015935300000001 10.6597365100000001 13.6646320600000006
 10.1340823400000009  7.3244163200000001 11.2986426899999994
 11.1058211599999996  2.2833805900000002 17.7969689200000012
  4.3956866000000003  5.0444936900000004 17.4663605599999983
 10.4155202199999994 10.6979428100000007 14.0280003999999998
  7.9680602000000000  2.8939087099999998 16.4567321500000006
 12.0063148500000008  5.7955942499999997 19.2391694099999988
  6.6436789300000001 12.1164799300000006  9.7872646799999998
  0.2488538600000000  7.6561591900000003 12.7537294400000007
  6.1654198300000003  5.3829971800000003 12.0481581099999993
  3.2609229300000000 12.8705103500000000 17.1219277000000005
  0.9432521500000000  7.0464829599999996 14.9170470099999992
  2.6726506300000001 10.8980110799999999 18.2193276399999995
  8.4031675400000001 13.8160784999999997 17.9929558800000002
 13.5593137000000006 11.6484803699999997 16.5464665199999992
  1.0174491800000001  1.7995672100000000 12.5274637900000005
 10.7708949900000004  7.2973423799999999 15.0490002500000006
  4.0008965800000000  7.2675837100000003 14.3285132999999991
  4.1369954599999996  0.6311872600000000 13.5642853100000007
  4.7378833000000000  7.2067963400000004 16.5803142900000005
  5.5601025999999996 12.6434959599999992 17.4765149300000004
  6.5482939099999999  1.3278028500000001 18.9731804699999991
  8.0366249700000001  0.6950288300000000 12.9676310600000004
  9.5144625099999995  9.4379887599999996 10.4464131200000008
  3.8212142299999998  7.8308137799999997 10.2990860600000005
  0.2503680100000000 12.5544403399999993 14.8056803299999995
  0.9035077800000000  8.0254650499999993 18.3035285399999985
  1.2358907200000000  4.8784679300000002 12.2392064800000000
 12.3983172699999997 10.1244516900000008 15.2464269699999999
 12.8505235300000002 11.2916393100000008 11.8572792800000002
  0.5769995400000000 10.1926864100000003 17.5453787400000003
  7.1830937400000003  1.1875481699999999 10.8853228000000009
  4.0791465200000001  9.3870253100000003 17.0241038600000003
  4.5823945200000002  5.6418056200000004 10.3362853799999996
  2.9577340699999999  4.0252288900000002 15.9042221300000008
 10.3102670199999995  0.5301528599999999 12.5082203700000001
  5.0061146799999996  0.6104636100000000 11.3610781000000003
  9.1422977999999997  8.9969314699999998 14.9377891500000004
  8.0950297599999992 13.7578550600000007 10.1691548500000000
  5.4505010699999996  9.1298211800000004 11.3296930299999996
  6.4016175899999999 11.2963498700000002 14.1961061500000003
 13.4438741799999999  9.4991013300000002 13.2602341900000003
 13.1518953700000001 13.1704298099999999 13.3015594200000002
 13.4315191299999999  6.9398310499999996 17.7984719100000000
 12.9450527799999993  4.6816831499999996 14.3773053799999992
  9.9530580299999993  6.0049364299999999 18.2581094499999992
  8.9068334100000008  1.5119204799999999 18.2545891500000010
  1.4055301600000001 10.8253607499999998 11.3124423899999993
 11.7531643999999993  7.6909532199999999 12.9674650299999996
  4.6821873500000004 13.2104552300000009 10.2481696099999997
  6.5631959899999996 13.4922675200000004 19.4368541899999983
  2.4963150399999998  5.5044291400000001 14.1270850200000009
  0.2157997000000000  3.4997130500000000 19.0381121700000016
  1.8547967200000000 14.0259647600000008 15.5714023600000004
  9.5448670199999999  4.0376057999999997 13.1395373000000006
 13.4793006099999992  5.7688315899999996 12.3252003099999996
  9.7633409199999992 12.0526298599999997 17.2397850400000010
 11.3418550400000004 14.2237372999999998 14.4076107600000007
  2.0927918100000000  8.5818045499999993 11.6370442999999995
  2.9508925000000001  9.3106983499999991 13.8026219999999995
 10.0905318400000006 13.2922755600000002 11.0701892799999992
 11.9670678600000002  8.3628953999999993 16.7019856199999985
  3.2716706599999998 12.1552639800000009 11.6782280800000002
  5.9786565300000003  3.9340150199999999 13.9651838399999999
 11.1952124499999996  3.6728451299999998  9.7141126199999999
  4.4477662000000002  2.4619059999999999 14.9807364199999995
  7.0575724500000003  6.8515493200000002 16.2992633799999993
 10.5492030200000002 11.1067372199999994 11.7045196800000006
  0.8294133700000000  3.6562282300000000 16.8149380999999991
  5.9156246100000001  1.6953179599999999 16.6815558099999990
