 H Si 
 1.0000000000000000
    14.5422910266661845    0.0000000000000000    0.0000000000000000
     0.0000000000000000   14.5422910266661845    0.0000000000000000
     0.0000000000000000    0.0000000000000000   11.0506158322569945
 H   Si 
  10  88
Cartesian
 13.0256000000000007 13.2759999999999998  8.1714099999999998
  1.5955299999999999  0.2899450000000000  0.3857930000000000
  0.8904630000000000  0.0736480000000000  4.9859799999999996
  3.6435599999999999  8.7458100000000005  5.7244700000000002
 12.7986000000000004 10.2317999999999998 10.0083000000000002
 10.4168000000000003 10.3358000000000008  2.7994900000000000
 12.7361000000000004 12.7829999999999995  0.8080910000000000
 13.8373000000000008  9.6029599999999995  6.2013400000000001
  2.9986500000000000  1.2064800000000000  7.5357000000000003
  0.2639100000000000  0.5737090000000000  8.6979799999999994
 10.9209999999999994 13.2851999999999997  3.6756600000000001
  2.5288800000000000  6.5084700000000000  9.2661899999999999
  9.7109699999999997  3.7556699999999998  0.0852747000000000
  9.0447799999999994  8.3906299999999998 10.6205999999999996
 10.6207999999999991  1.9500999999999999  4.1217899999999998
  9.0760000000000005  5.2287400000000002  4.2698400000000003
 11.0170999999999992  3.1841400000000002  1.9957700000000000
  7.8783599999999998  2.0428899999999999  6.5091099999999997
 14.4379000000000008  6.5391000000000004  9.6992600000000007
  1.6359999999999999  6.3033299999999999  5.8350900000000001
  9.7990100000000009 11.1327999999999996  3.8436599999999999
 12.0907000000000000  0.1683140000000000  5.3543300000000000
 14.2619000000000007  2.3249200000000001  3.0920600000000000
  2.5355300000000001  1.5295700000000001  0.4678550000000000
  4.3927199999999997  0.7386400000000000  7.4370599999999998
  9.1953499999999995  0.4152310000000000  3.3676900000000001
  5.3037500000000000  0.3085630000000000  3.7742900000000001
  4.5417699999999996  7.6612999999999998  8.6168099999999992
 11.0016999999999996  7.9993100000000004  5.8385100000000003
  5.1577000000000002  5.8344199999999997  4.9152300000000002
  7.1713100000000001  7.0373700000000001 10.8398000000000003
  6.1298100000000000 13.7802000000000007  1.7762899999999999
  6.2930500000000000 11.4539000000000009  1.7936799999999999
  7.9661099999999996  4.5198200000000002  2.3532899999999999
 11.7714999999999996 13.8879999999999999  1.4349200000000000
  6.3513099999999998  6.2331500000000002  8.8524300000000000
  4.8508599999999999  9.8896999999999995  0.9994990000000000
  5.6567499999999997  2.7009699999999999  7.1474500000000001
  2.1842199999999998  2.6498400000000002  2.4839300000000000
  5.8777499999999998  7.8448200000000003  1.6555200000000001
 11.3941999999999997  4.0498700000000003  9.4653899999999993
  7.6922499999999996 10.0358000000000001  9.5987399999999994
  6.5202099999999996 10.8176000000000005  5.7911799999999998
  5.2336000000000000  9.9707200000000000  9.7653999999999996
  7.5540900000000004  0.3689560000000000  5.0636999999999999
  0.0226096000000000  2.8119399999999999  6.6418499999999998
  8.6813900000000004  1.1683800000000000  8.6422899999999991
  4.6037200000000000 13.7425999999999995  5.7511999999999999
  4.5803099999999999  5.9792100000000001  2.4376400000000000
 14.2584999999999997  1.0901900000000000  5.2088400000000004
 12.1072000000000006  5.3098400000000003  2.1408800000000001
  6.8522400000000001 13.0169999999999995  6.4468699999999997
 13.6384000000000007  4.6334099999999996  3.7617200000000000
  5.6503100000000002  2.6879900000000001 10.8150999999999993
  4.6340199999999996  0.4557880000000000  0.1764040000000000
  7.5254000000000003 13.6035000000000004  8.5552200000000003
 12.2931000000000008  6.1840000000000002 10.5996000000000006
  7.6916000000000002  8.2944899999999997  3.1675599999999999
 10.8673000000000002  4.5726300000000002  7.1834499999999997
  9.6481700000000004  7.7734699999999997  1.8240400000000001
  2.8604400000000001  4.3378899999999998  8.4643599999999992
 10.9109999999999996  0.4193980000000000  9.4712800000000001
  7.4748500000000000 10.5602999999999998  3.5876999999999999
  2.0424899999999999  4.0720000000000001  6.3669599999999997
  9.8281399999999994 10.1036999999999999  6.1314900000000003
 14.4518000000000004  2.0033900000000000  8.8528500000000001
  4.2563399999999998 11.5162999999999993  6.2010100000000001
  4.2227800000000002  3.7316799999999999  5.4396500000000003
 12.9330999999999996  4.5522499999999999  6.0981199999999998
 10.6818000000000008 11.5294000000000008  7.9515599999999997
 10.8950999999999993  7.7023599999999997  9.4573199999999993
 14.2423000000000002  6.5025000000000004  7.2490399999999999
  9.4906900000000007  3.4003700000000001  5.8019800000000004
  7.3525000000000000  6.7265100000000002  4.8117900000000002
  4.6736399999999998 11.7729999999999997  8.4575600000000009
 11.6669000000000000 13.6448999999999998  7.6103100000000001
  3.7576600000000000  7.4225300000000001  6.2460300000000002
  5.7701099999999999  3.9536199999999999  1.9036100000000000
  8.6926100000000002  5.8113099999999998  0.7694460000000000
  9.8137699999999999 13.5433000000000003  0.1173410000000000
 12.9443999999999999  8.5842899999999993  6.9772499999999997
  7.7390699999999999  7.2177699999999998  7.2462400000000002
  2.2900999999999998  5.1190300000000004  2.1889699999999999
  8.9181200000000000 11.9590999999999994  9.3840800000000009
  8.2220499999999994  0.3152410000000000  1.2274499999999999
 12.5634999999999994  2.0268600000000001 10.0295000000000005
  4.6008300000000002  2.5019300000000002  3.5086200000000001
 12.5548999999999999  1.6594700000000000  1.3547800000000001
  7.8223000000000003  9.4399499999999996  7.2580499999999999
 10.8878000000000004  6.7598700000000003  3.6257000000000001
  1.7154199999999999  2.9935999999999998  9.9328299999999992
  0.7997990000000000  6.1847700000000003  3.6306799999999999
  5.3091699999999999  4.0653899999999998  9.0291399999999999
 10.0359999999999996  6.7639399999999998  7.4936299999999996
  7.9986100000000002  2.1309200000000001 10.7269000000000005
  1.5439700000000001  5.2622999999999998 10.9060000000000006
 12.1035000000000004  9.6040899999999993  8.8659400000000002
  5.3052999999999999 14.0249000000000006  9.1604100000000006
