 H Si 
 1.0000000000000000
    14.5641956660020888    0.0000000000000000    0.0000000000000000
     0.0000000000000000   14.5641956660020888    0.0000000000000000
     0.0000000000000000    0.0000000000000000   29.4949256000000020
 H   Si 
  16 102
Cartesian
 11.0610999999999997  3.2171799999999999 19.4489756000000007
 13.2166999999999994 13.6062999999999992 12.8610156000000000
 13.4613999999999994  3.8128000000000002 18.1568055999999984
 11.8079000000000001  2.4790800000000002 11.4101455999999999
  1.1362600000000000  3.6926100000000002 19.3698756000000003
  1.3575200000000001  4.5271299999999997 10.9242235999999995
  4.0991400000000002  9.8136700000000001 16.6694655999999988
  7.3934899999999999 10.0069999999999997 18.8090055999999990
 14.2706000000000000  5.8400100000000004 10.5562515999999995
  1.1471800000000001  4.2878800000000004 18.8813755999999984
  6.1411699999999998  6.9468100000000002 12.6133156000000000
  0.6977890000000000  0.1163710000000000 12.3475456000000001
 13.7849000000000004 13.1247000000000007 12.7695255999999997
 14.1110000000000007  2.6829499999999999 10.6543556000000006
 -0.0498742000000000  1.9573400000000001 10.6703016000000002
  8.5085099999999994  8.3789599999999993 19.0803155999999987
  9.3054000000000006 10.2603000000000009 12.1663055999999994
  9.6730300000000007  8.2463899999999999 11.0596455999999996
  3.3967200000000002  3.4935800000000001 15.2899756000000000
  5.2668999999999997  8.6752599999999997 12.2520156000000000
 11.2329000000000008 11.6625999999999994 12.4488856000000006
 10.0655999999999999  0.4913470000000000 13.1932956000000008
  6.1555799999999996  9.3481000000000005 10.2438465999999995
 10.1805000000000003  4.3243299999999998 18.8068355999999994
  6.3839499999999996 11.5907000000000000 10.0645273999999993
 11.1783999999999999  5.1867999999999999 16.9636856000000016
  2.4667800000000000  1.0370800000000000 18.0229156000000010
 12.8203999999999994 10.1173999999999999 13.1874756000000009
 10.0672999999999995 10.3292999999999999 17.5163855999999996
 13.3035999999999994  7.1761600000000003 13.9146555999999997
 13.7009000000000007  9.8576599999999992 18.1578955999999998
  4.2313999999999998  2.3092299999999999 19.1515956000000003
 11.9649999999999999  8.8842999999999996 14.8981055999999992
  6.2606299999999999 13.4852000000000007 19.2563256000000003
 10.8775999999999993  5.0228400000000004 11.7806856000000000
  2.7025999999999999  0.3874310000000000 13.2945955999999992
  0.8708420000000000  7.0046499999999998 14.7597456000000005
  0.6163110000000001  5.7314699999999998 16.5046256000000007
  4.1786199999999996  1.4107400000000001 14.8462855999999999
  9.4953900000000004  6.8008100000000002 16.4109656000000008
  1.8351400000000000  9.1565999999999992 15.1548155999999992
 11.1174999999999997  3.8271400000000000 15.1049956000000005
  6.7804500000000001  4.9558700000000000 14.7681556000000000
 11.8163999999999998 12.2548999999999992 10.1732416000000008
  9.1705299999999994  0.0779456000000000 17.0597455999999994
  4.2576499999999999  7.0072700000000001 16.4498256000000005
  7.9649500000000000  3.8508499999999999 18.2276756000000013
  9.6806500000000000  8.1758799999999994 18.1951655999999993
  7.9686199999999996 14.5410000000000004 10.0000000000000000
  4.4873300000000000  5.3793300000000004 14.9153956000000001
 10.7506000000000004 13.0685000000000002 14.2552856000000006
 12.2284000000000006  1.8611200000000001 15.7455256000000006
 13.4783000000000008  8.2946700000000000 11.9477556000000007
  6.9572700000000003  3.9184800000000002 11.4977256000000008
  0.4614730000000000 10.7812000000000001 14.0049956000000009
  3.3388700000000000  7.4130500000000001 11.9626256000000009
  0.2490860000000000 12.7232000000000003 15.2419656000000003
  7.7063199999999998  1.9166399999999999 17.1585655999999993
  9.7811800000000009  7.8220900000000002 14.3922355999999994
  7.3699000000000003  2.8126899999999999 15.0521756000000000
  7.5107699999999999  5.8416699999999997 16.8388455999999991
  6.1709199999999997  7.6749200000000002 17.5724456000000018
  8.4537300000000002 10.7918000000000003 16.0641855999999983
  9.3063900000000004 11.4611000000000001 19.2149256000000008
  9.1800700000000006  1.8865000000000001 10.0584641000000001
  3.3620899999999998  2.2614200000000002 11.7762556000000007
  5.6861400000000000  0.4432620000000000 10.1474156000000004
  1.8469599999999999 13.5122999999999998 18.7433656000000006
  5.3832500000000003 11.7087000000000003 17.9243056000000003
 14.3926999999999996  3.4589400000000001 13.6126356000000008
  5.6011800000000003  2.0110199999999998 11.9066455999999992
 13.2454000000000001  5.8533499999999998 17.7922855999999996
  1.3277699999999999  9.8846799999999995 17.3394155999999988
  0.8242650000000000  1.8402300000000000 16.5858455999999990
  8.1160200000000007  9.5657099999999993 14.1373756000000004
  6.7863699999999998 13.5778999999999996 13.7071655999999997
 12.5290999999999997 12.7545999999999999 15.7461456000000002
  3.9461599999999999  4.0572600000000003 17.5356656000000015
  9.5081799999999994  2.4643000000000002 14.0879256000000002
  3.4297399999999998 12.6191999999999993 12.6642455999999992
  2.6793999999999998  9.2661800000000003 19.1185955999999990
  7.1636899999999999  5.7960000000000003 12.6857556000000002
  8.4808500000000002 11.9664999999999999 10.9055985999999994
 11.5275999999999996 -0.0220167000000000 17.0653855999999990
 13.4002999999999997  2.3584200000000002 17.6546756000000009
 13.5152999999999999  1.3609700000000000 13.8846355999999993
  1.8214800000000000  4.0396900000000002 12.3022755999999998
  0.8425020000000000 11.9067000000000007 10.6754795999999992
  0.8567520000000000  0.2673950000000000 14.5888755999999997
  4.1308800000000003 12.5228000000000002 16.1004556000000001
  4.5191699999999999 12.8628000000000000 10.5707286000000007
  8.5597200000000004 13.0451999999999995 15.3254956000000000
  1.0193700000000001  3.8112200000000001 15.4869555999999999
  4.2108900000000000  9.0369899999999994 15.4193756000000004
  6.2732500000000000  1.2579100000000001 14.0030555999999997
  9.2567299999999992  6.6371099999999998 12.5421656000000006
  1.9239299999999999 12.1019000000000005 16.7710656000000000
  8.6027600000000000 13.5265000000000004 18.9334956000000005
  2.5238299999999998  5.9860300000000004 17.7570456000000014
 13.2317000000000000  7.8150599999999999 19.0084856000000002
  5.1325000000000003 12.0158000000000005 14.0287655999999998
 11.7880000000000003  7.7203299999999997 10.3447005999999995
  0.5488790000000000 14.0643999999999991 10.7730695999999995
 12.2352000000000007 10.5328999999999997 16.6141055999999985
  5.8815400000000002  9.8889399999999998 14.0336155999999992
  8.4960100000000001 13.7537000000000003 12.1207955999999992
 14.2347000000000001 13.7614000000000001 19.4949255999999984
  2.7228900000000000  5.9317799999999998 13.5068356000000005
  1.9461100000000000 10.8636999999999997 12.4208955999999997
  6.8170299999999999 10.0135000000000005 17.4949255999999984
 12.8091000000000008 14.3358000000000008 10.4941516000000004
 11.9362999999999992  1.2159000000000000 12.1489955999999992
  4.3019999999999996  0.1294110000000000 16.7841355999999990
  5.9805999999999999  0.9021470000000000 18.1976855999999998
  1.3493900000000001  8.7991700000000002 11.4437455999999997
 12.4926999999999992  4.9062200000000002 13.5247556000000007
  9.0981699999999996  3.3291499999999998 11.8958656000000005
 12.6133000000000006  0.6713830000000000 18.8554655999999987
