 H Si 
 1.0000000000000000
    14.5825907057694035    0.0000000000000000    0.0000000000000000
     0.0000000000000000   14.5825907057694035    0.0000000000000000
     0.0000000000000000    0.0000000000000000   29.0576733999999952
 H   Si 
  36  90
Cartesian
 13.0688999999999993  0.2416840000000000 16.4660134000000014
 12.6823999999999995 10.4971999999999994 17.3225434000000007
 11.5284999999999993 13.8545999999999996 12.4729033999999999
 14.2062000000000008 13.7936999999999994 12.5938534000000004
 13.9915000000000003 12.1433000000000000 17.7399734000000002
  0.5766540000000000 12.0693000000000001 10.4980113999999993
 10.0731000000000002  1.2008799999999999 14.1403833999999993
 13.2474000000000007 10.7180000000000000 15.2217234000000001
 11.4438999999999993 11.0459999999999994 12.7502133999999998
 11.0602999999999998  1.1606000000000001 17.8629634000000017
  1.4126000000000001 12.9003999999999994 16.7738633999999998
 10.7527000000000008 11.0038000000000000 16.4840833999999994
  1.4496599999999999 13.2858999999999998 18.9069934000000011
 13.6304999999999996  1.9747399999999999 14.5082333999999999
  0.4267850000000000 14.3800000000000008 17.4688634000000000
  0.2061160000000000 11.0076000000000001 14.0087834000000004
 10.5043000000000006 13.3233999999999995 17.0628734000000009
 13.3620999999999999 14.5949000000000009 18.4294633999999995
  6.4098600000000001 11.5678000000000001 14.3402834000000006
  9.6146300000000000 12.6265999999999998 15.0057434000000001
 10.2262000000000004 12.2673000000000005 14.7163833999999998
 12.6692000000000000  2.0172599999999998 17.8684633999999996
 14.4566999999999997 14.6580999999999992 10.0229628999999996
 13.1366999999999994 13.0230999999999995 10.9066563999999993
 13.0131999999999994 12.3630999999999993 13.6856633999999993
 12.9037000000000006  1.3235800000000000 12.3405134000000007
 13.2788000000000004  2.0247299999999999 18.2708434000000004
 13.7139000000000006 10.6765000000000008 11.9565733999999999
 12.5501000000000005 12.7048000000000005 16.1851133999999988
 12.0656999999999996 14.8747000000000007 14.2168434000000001
 12.1499000000000006 10.6814999999999998 11.2179333999999997
 10.6684999999999999 -0.0117230000000000 15.9211933999999999
  0.9364780000000000 11.9658999999999995 12.5389434000000008
 14.2110000000000003 13.6696000000000009 15.0302334000000002
  9.0661500000000004 11.1730999999999998 13.3688734000000000
 12.3193999999999999  0.8018670000000000 12.2625133999999996
  6.5286999999999997  6.3344399999999998 18.5501334000000000
  7.5598099999999997 11.2210999999999999 17.3764234000000002
  1.6705000000000001  1.6169600000000000 11.1002834000000004
 14.3341999999999992  4.2351299999999998 12.7131734000000005
  1.4999899999999999  3.3292700000000002 13.9447734000000008
  2.9076100000000000  6.5702900000000000 14.0292434000000004
  4.6786700000000003  6.3140700000000001 17.4545433999999986
 10.3000000000000007 13.6565999999999992 11.6722733999999999
  5.9219900000000001  7.6982999999999997 11.0286933999999999
  5.6167800000000003 13.2726000000000006 10.9870433999999992
  1.3372999999999999 10.0167000000000002 18.8051133999999998
  1.4137500000000001  9.5839599999999994 16.5477933999999998
  6.6616799999999996 13.1554000000000002 16.2756733999999987
 12.7716999999999992 11.5261999999999993 18.3464634000000011
  9.0139099999999992 11.8734999999999999 19.0576733999999988
  5.8820800000000002  3.2490100000000002 14.9412134000000005
  2.2672500000000002 13.0434999999999999 12.6533934000000006
 13.4993999999999996 12.2093000000000007 15.1327534000000004
  2.7325400000000002  6.7652400000000004 18.5569434000000015
 13.5431000000000008  7.7811800000000000 10.4504634000000003
  5.4681600000000001 10.2053999999999991 18.0657133999999999
 10.8935999999999993 12.7819000000000003 18.4246634000000000
 12.4344999999999999  8.0076699999999992 12.5353633999999996
  7.4428900000000002 13.8094000000000001 14.2102634000000005
  9.5710200000000007  3.6387200000000002 16.4795933999999988
  3.9098000000000002  4.6205999999999996 11.1471833999999994
  3.1711499999999999  2.7528999999999999 12.4231034000000005
  2.1931200000000000  9.4253199999999993 11.7296633999999997
  3.5335399999999999  0.6767350000000000 15.9576133999999996
  3.1177899999999998 10.4870000000000001 10.0000000000000000
  8.5878499999999995  1.1747000000000001 14.2333233999999997
  5.9583500000000003  0.2412120000000000 12.8561434000000006
  1.2212099999999999  7.4170999999999996 10.8613344000000005
  4.5532199999999996  4.3220400000000003 16.4444234000000016
 11.3917999999999999  6.1626099999999999 15.6241933999999993
  4.3389300000000004 13.1134000000000004 16.1666834000000001
 12.0098000000000003  8.2786399999999993 16.5698533999999995
  7.7491599999999998  1.6665200000000000 12.1960134000000000
  9.2041500000000003  5.8503999999999996 16.2222633999999992
 11.8890999999999991  0.7324160000000000 15.6461834000000000
  6.7064199999999996  8.4487799999999993 14.8660934000000005
  7.0130299999999997  9.6714099999999998 11.8305433999999998
  4.8441799999999997  1.2703400000000000 17.9061833999999998
  4.7424400000000002  6.2452800000000002 12.4520934000000008
  0.4540110000000000  4.4119599999999997 16.6356134000000004
  3.3950399999999998 12.6397999999999993 10.7754373999999995
  0.8676500000000000  6.4257799999999996 12.9214734000000000
  7.3050100000000002 11.6541999999999994 10.6789503999999997
 11.7812999999999999  7.3406399999999996 18.6695133999999996
 14.3292000000000002  8.1554300000000008 15.9864833999999991
  6.9405700000000001  0.6755949999999999 17.3206333999999984
  9.2685399999999998  6.6436500000000001 12.6734533999999996
 14.4039000000000001  8.2657399999999992 13.7367933999999998
  7.8125099999999996  2.2784300000000002 15.9553733999999992
  0.8553970000000000  0.0769376000000000 12.6281833999999993
  8.7545000000000002  5.4265600000000003 10.8423364000000007
  0.4692140000000000  1.4331799999999999 14.5054333999999994
  7.8514099999999996  6.4149900000000004 14.3829434000000003
  4.1793500000000003 12.2599000000000000 18.2565734000000006
 11.2688000000000006  2.9634900000000002 11.2477534000000006
 11.4291000000000000  6.1321000000000003 13.3741933999999993
  2.5672700000000002  4.5818099999999999 15.3850034000000004
  1.3275399999999999  2.6551800000000001 17.9385033999999983
  9.7418800000000001  3.8216800000000002 18.8826934000000008
  4.9645700000000001  8.3855199999999996 16.5899934000000009
  3.5889400000000000  9.7790199999999992 13.6124234000000008
  3.0922200000000002  8.5030699999999992 15.4279033999999999
 10.5050000000000008  9.7915600000000005 15.5601134000000005
 12.6701999999999995  4.5193700000000003 16.6457334000000010
 11.9770000000000003  3.8871099999999998 13.3110833999999993
  8.5910700000000002  7.3479799999999997 17.7806834000000009
  9.2152799999999999  8.8417999999999992 11.9773934000000004
  4.6527799999999999  1.5584700000000000 14.0468934000000001
 11.5518000000000001  2.9655700000000000 15.3260334000000000
 11.7278000000000002  4.9169499999999999 18.8039233999999986
  1.2596900000000000 11.7369000000000003 15.7634633999999991
  1.3071900000000001  0.7101940000000000 16.5894134000000015
 10.8938000000000006  9.8421199999999995 13.2335334000000007
  8.3859499999999993  9.2734299999999994 16.2678533999999999
  3.1130300000000002 11.9244000000000003 14.5232334000000005
  7.1130899999999997  3.8369100000000000 11.6639833999999993
  0.4512820000000000 10.4185999999999996 12.6726734000000008
  6.3742299999999998  4.9565900000000003 13.4815734000000003
  0.1921610000000000  3.2981199999999999 10.5788493999999993
  5.9743899999999996 10.2965000000000000 13.7327334000000008
  5.3835100000000002  3.4011600000000000 10.0348121999999993
  8.6036099999999998 12.3808000000000007 12.5967933999999993
  9.5999599999999994  1.1688099999999999 10.9883234000000005
  3.6125699999999998  3.3535800000000000 18.3134033999999986
  0.6879380000000000  6.5017899999999997 17.5528933999999985
