 H Si 
 1.0000000000000000
    14.5342042383440404    0.0000000000000000    0.0000000000000000
     0.0000000000000000   14.5342042383440404    0.0000000000000000
     0.0000000000000000    0.0000000000000000   25.9579300999999987
 H   Si 
   8  62
Cartesian
 13.9305000000000003  5.6573500000000001 11.3477400999999993
  3.6180800000000000  0.3867320000000000 14.2576701000000003
  9.4465299999999992  3.5272600000000001 11.7463501000000008
 13.6313999999999993 12.3521999999999998 11.6864901000000003
 12.6820000000000004 12.2881000000000000 13.1155501000000001
  1.9496400000000000  3.8579200000000000 15.3973201000000000
  5.5324900000000001  3.3647499999999999 15.4818601000000005
  6.4669999999999996  6.7629700000000001 10.9861201000000008
  0.4339070000000000  3.3067199999999999 12.7371900999999994
  4.9550999999999998 11.5761000000000003 13.8022401000000006
  2.5242200000000001  6.2570399999999999 11.5463100999999995
 11.6336999999999993 11.8192000000000004 14.1056600999999997
  2.0766000000000000  9.2968399999999995 15.1138001000000006
  4.0169100000000002 11.9258000000000006 11.6433301000000000
  0.3331280000000000  1.9327200000000000 14.5662201000000007
  8.4890399999999993  3.4283000000000001 12.8369201000000004
  5.4159899999999999  2.1034500000000000 11.3395901000000006
  2.4453900000000002  4.5189000000000004 10.0000000000000000
 11.8300999999999998  4.2163500000000003 10.5587371000000001
  7.3962899999999996  8.3137500000000006 13.0177501000000007
  7.5931300000000004 12.6693999999999996 11.3774501000000008
  4.0827600000000004  5.4589600000000003 12.9977701000000003
  6.1274199999999999  4.0374800000000004 10.2798361000000007
 12.6465999999999994  3.1421100000000002 12.3699101000000002
  7.7973400000000002  8.7468500000000002 10.7718170999999998
 12.6791000000000000  9.5048200000000005 11.2277701000000008
 13.7451000000000008  0.0686198000000000 13.7843900999999995
  2.6152299999999999 13.8408999999999995 14.6845500999999992
 12.1889000000000003  0.8203360000000000 12.1689600999999996
  4.3719500000000000  6.0505699999999996 15.2756200999999994
  8.9582400000000000 10.7746999999999993 10.7589111000000006
 10.0114000000000001  6.7853599999999998 13.0505201000000000
  7.6924599999999996  5.7458000000000000 13.3677200999999997
 11.8527000000000005  3.9428399999999999 14.4702400999999998
 10.8376000000000001 10.4555000000000007 12.4215800999999999
  8.0839400000000001  1.9793900000000000 15.8532200999999997
  0.6262080000000000  7.7201399999999998 15.9579301000000005
  2.0305100000000000  8.4909499999999998 11.2817501000000000
 13.3163000000000000 11.5526999999999997 10.3996171000000004
  9.9086099999999995  2.6103600000000000 14.4334901000000002
  1.9842200000000001 12.9109999999999996 11.1529001000000001
  8.8067299999999999  0.0769087000000000 11.5710601000000004
  4.1537800000000002  9.6753499999999999 11.2298200999999995
  0.0322827000000000  8.9642700000000008 12.5185800999999994
  7.3276100000000000  1.4886200000000001 12.4993500999999991
  5.5248400000000002 13.0288000000000004 10.2349271000000002
  6.6356000000000002  0.5657910000000000 14.5257301000000005
 12.6594999999999995 14.1437000000000008 15.7169200999999994
  6.9276999999999997  5.9903300000000002 15.6255700999999991
 10.9359999999999999  6.4325799999999997 10.8751420999999997
 13.3756000000000004  2.9970900000000000 15.8689800999999999
  0.4472400000000000  5.4187200000000004 12.3957201000000001
  6.9270699999999996 12.7926000000000002 13.6176200999999999
 10.4841999999999995 13.5928000000000004 15.0694701000000002
  9.6167200000000008  8.9997299999999996 13.9150801000000008
  6.0128700000000004  5.6841499999999998 11.8826000999999994
  0.9620350000000000 13.1047999999999991 13.2279900999999995
 14.1145999999999994  7.0768800000000001 13.9926501000000005
  4.1198699999999997  8.3595000000000006 14.9145301000000003
  2.1546900000000000  2.5360399999999998 11.4724500999999997
  4.6495300000000004  1.9064000000000001 14.7005701000000002
 10.2683000000000000  0.4187950000000000 13.3248000999999991
  2.2825899999999999  0.4915860000000000 10.1810320999999995
  4.0613099999999998  3.0937199999999998 12.8734100999999992
 13.4283000000000001 10.7716999999999992 15.4439800999999992
  5.3486300000000000  9.3733500000000003 13.1841901000000004
 11.8590999999999998  6.3583900000000000 14.5225100999999999
  8.1213800000000003 11.0330999999999992 14.6527501000000004
  3.9931800000000002 12.2345000000000006 15.9439501000000003
  0.6507110000000000 10.7764000000000006 13.8342801000000009
