 H Si 
 1.0000000000000000
    14.5295791732167459    0.0000000000000000    0.0000000000000000
     0.0000000000000000   14.5295791732167459    0.0000000000000000
     0.0000000000000000    0.0000000000000000   25.0663139999999984
 H   Si 
   4  54
Cartesian
 11.6080000000000005  3.7593600000000000 13.6504340000000006
  6.2156300000000000  0.5176900000000000 13.3392140000000001
 10.9453999999999994  5.4917800000000003 14.4608740000000004
  1.8727600000000000  8.6820699999999995 10.7547630000000005
  0.7873670000000000 12.5068999999999999 10.8554870000000001
  9.5908899999999999  5.6169599999999997 15.0663140000000002
  8.8707499999999992  0.3360520000000000 11.7441540000000000
 10.5642999999999994  9.3172999999999995 14.5541640000000001
  5.4269100000000003  8.5359200000000008 14.3077539999999992
 13.0495999999999999  3.0267200000000001 11.0948639999999994
  1.7602800000000001  9.9691799999999997 13.6692140000000002
  1.7936500000000000  5.4891500000000004 11.0234839999999998
  4.2254899999999997  5.3328400000000000 14.0885040000000004
  3.6479900000000001  8.8695500000000003 12.7213539999999998
  6.0729899999999999 12.1951000000000001 12.7011240000000001
  0.8725140000000000  1.0540799999999999 13.1717540000000000
  7.6081000000000003 11.4678000000000004 14.3698139999999999
 10.2990999999999993  6.1643400000000002 11.4554539999999996
  4.0311399999999997 13.3472000000000008 13.3652139999999999
 13.2310999999999996 12.0591000000000008 14.0688940000000002
  6.3325699999999996  4.9444900000000001 10.2195409999999995
 14.0753000000000004 10.1127000000000002 12.8801939999999995
  9.9099699999999995 11.1184999999999992 11.4140440000000005
 12.2202000000000002  1.0342000000000000 14.1804839999999999
  5.1883900000000001 10.3318999999999992 11.6107440000000004
 10.0615000000000006 13.0911000000000008 12.6020339999999997
  8.6408600000000000  1.9508000000000001 14.9457939999999994
  9.1369600000000002  2.4175499999999999 12.6609839999999991
  5.1508399999999996  6.8602600000000002 10.3493510000000004
 12.7606999999999999  8.0114699999999992 10.0000000000000000
  8.4517299999999995  5.9786299999999999 12.9538340000000005
  3.5421600000000000  6.5643700000000003 12.1855440000000002
 11.4300999999999995  2.6150799999999998 12.6361340000000002
  4.2840400000000001  2.4664100000000002 11.8905639999999995
  5.6586800000000004  3.4851399999999999 13.3874139999999997
  2.4042100000000000  4.3895999999999997 14.9188840000000003
 14.1174999999999997  2.3084500000000001 14.6473440000000004
  0.2585770000000000  4.4087899999999998 14.0566139999999997
 13.5112000000000005 14.0165000000000006 10.7481089999999995
  6.4673699999999998  1.5306100000000000 14.3906240000000007
  7.4801299999999999  4.0469999999999997 12.0324539999999995
  3.1360000000000001  1.2667299999999999 13.5168540000000004
 12.3704999999999998 13.7771000000000008 12.6918740000000003
  0.1941580000000000  1.4690000000000001 10.9877640000000003
 12.6456000000000000  8.3180300000000003 13.5956639999999993
  6.8718399999999997 13.7779000000000007 11.2018439999999995
  3.3255699999999999  3.7579500000000001 10.1704209999999993
  7.5139800000000001  8.0919699999999999 12.9253540000000005
 14.1857000000000006 10.4758999999999993 10.4950650000000003
  0.7068900000000000 13.3528000000000002 14.2400939999999991
 11.9552999999999994 10.2650000000000006 10.1518940000000004
  8.9564400000000006  9.9924800000000005 13.1881839999999997
  6.5465999999999998  8.6457400000000000 10.8722449999999995
  9.6876899999999999 12.5030000000000001 14.8887739999999997
 14.2261000000000006  5.0030700000000001 11.9463439999999999
 12.4667999999999992  6.5816999999999997 12.0006640000000004
  5.3068400000000002  0.7222590000000000 10.6584280000000007
  2.0683799999999999 12.1789000000000005 12.9366540000000008
