 H Si 
 1.0000000000000000
    14.5237936979055426    0.0000000000000000    0.0000000000000000
     0.0000000000000000   14.5237936979055426    0.0000000000000000
     0.0000000000000000    0.0000000000000000   25.8272707299999986
 H   Si 
   1  61
Cartesian
  2.7096000000000000  0.9181240000000001 13.9906407300000009
  3.4548999999999999  4.0697999999999999 13.5818107300000008
  9.7599400000000003  4.6554700000000002 13.0776307299999992
  5.4687500000000000  9.8543599999999998 11.7174407299999999
 11.7338000000000005  1.4421600000000001 12.4712807300000001
  6.6287799999999999  3.4430499999999999 11.9678507300000003
  7.0851800000000003  6.7338300000000002 10.2610627300000008
 10.5738000000000003 10.8010999999999999 12.8282007300000007
  3.9057400000000002  4.5614299999999997 15.8272707300000004
 12.7228999999999992 14.1995000000000005 11.5419007300000001
  9.4111899999999995  0.9016110000000001 12.8127307300000002
  4.8726200000000004  2.2992400000000002 13.0540107299999999
  1.1735300000000000  3.2987000000000002 13.3087607299999995
 11.3739000000000008 12.3063000000000002 11.1074007300000002
  0.0217219000000000  2.2324899999999999 14.9349407299999992
  7.9846100000000000  3.9273600000000002 15.3379707300000003
  9.6006599999999995 14.4413000000000000 14.8078807300000008
  4.6751199999999997  8.6279000000000003 15.1313007299999995
  1.3187500000000001  1.4795499999999999 11.6840407299999995
  9.4390099999999997  8.7379800000000003 12.0551707300000004
  0.1863620000000000  4.8017899999999996 11.8242607300000007
  3.9086699999999999  8.3096399999999999 13.0277107300000008
 11.3506999999999998  3.0098300000000000 10.7701807299999999
  3.5456099999999999  6.6591199999999997 10.2559737299999991
  7.1920999999999999  9.1556499999999996 15.2869907299999994
  3.2702300000000002 10.3757999999999999 15.5232507300000009
 13.8813999999999993 10.5047999999999995 15.2629607299999996
  1.9150000000000000 12.1326999999999998 12.0981907300000007
 11.6236999999999995  4.3974299999999999 14.5151307299999992
  7.2899000000000003  0.1877810000000000 15.8216107299999997
  5.5573699999999997 11.6922999999999995 13.1221507299999995
  7.2599200000000002 11.3613000000000000 14.7725807299999996
  1.3415100000000000  8.4909700000000008 13.1642207300000003
  9.0173799999999993  8.0683600000000002 14.2907107300000007
 13.2405000000000008  7.4900700000000002 10.6171917300000000
 14.1758000000000006  6.9432200000000002 12.6285607300000002
  9.4255099999999992 12.8381000000000007 10.0551100299999998
  3.4302500000000000 12.1306999999999992 13.9773907299999998
  8.1341500000000000 14.1864000000000008 11.3219707300000003
  9.6875699999999991 12.0959000000000003 14.6134807299999991
 10.2324000000000002  5.0707899999999997 10.9649977300000003
  0.3405190000000000 14.0261999999999993 12.4393907299999995
 10.8707999999999991  7.3865800000000004 10.8220747300000006
  3.1339800000000002 14.3248999999999995 15.0073607300000003
  0.2155670000000000 10.4220000000000006 12.1200407299999995
  0.5823390000000001 14.4329999999999998 14.8342607300000004
  8.0693800000000007  5.7880500000000001 14.1253207300000003
 11.1608000000000001  8.0535099999999993 15.4690407299999997
  3.5666300000000000  1.6356400000000000 11.1668807300000008
 12.3633000000000006  2.1573600000000002 14.5310207299999998
  6.0183600000000004 13.8270999999999997 12.2847607300000004
 13.3542000000000005  3.7901199999999999 10.1689667299999993
 12.8734000000000002  6.5086100000000000 14.7385307300000008
  6.4718600000000004  5.7471399999999999 12.3645307300000002
  2.9199199999999998 12.3422999999999998 10.0000000000000000
  4.2943300000000004  6.1699400000000004 12.4052107300000003
  8.2797699999999992  2.8975000000000000 13.3579607300000003
  1.2339100000000001  9.0717300000000005 15.4391607299999993
  5.5745300000000002  0.4953440000000000 14.1967807300000004
  7.4645099999999998  9.1923300000000001 10.8008817300000004
 12.8402999999999992 10.1172000000000004 13.1482507300000009
  4.5330899999999996 14.1292000000000009 10.4399987299999992
