 H Si 
 1.0000000000000000
    14.5607414187346631    0.0000000000000000    0.0000000000000000
     0.0000000000000000   14.5607414187346631    0.0000000000000000
     0.0000000000000000    0.0000000000000000   27.0179612000000020
 H   Si 
  24  69
Cartesian
  8.5182300000000009 12.9962999999999997 15.9143311999999995
  7.6134100000000000 11.6226000000000003 14.2293111999999997
  8.0034799999999997 13.1684000000000001 11.5666112000000005
  4.0370900000000001  5.4795299999999996 16.8801512000000002
  5.9853899999999998 12.3073999999999995 16.3073112000000009
  5.3072699999999999 13.4278999999999993 13.9756611999999993
  5.9946700000000002 10.4984999999999999 13.8490912000000002
  3.8427199999999999 10.0559999999999992 13.4006512000000004
  6.3915400000000000  8.4829200000000000 11.0847411999999998
  5.9415199999999997  7.2457700000000003 13.2073912000000000
  5.3635400000000004  7.1334999999999997 15.9144211999999996
  8.3283799999999992  9.9688400000000001 12.1768912000000000
  5.5659700000000001 12.6746999999999996 13.9350912000000005
  4.0927899999999999 12.0500000000000007 15.0522912000000009
  3.9376799999999998  8.1452299999999997 14.8080212000000007
  7.4714200000000002 10.6978000000000009 16.8084412000000007
  7.5118499999999999  9.3783600000000007 13.8611412000000005
  3.3531800000000000 10.0582999999999991 16.6543312000000014
  6.0713499999999998  7.0917899999999996 15.6676012000000000
  8.1634200000000003  8.3606800000000003 15.9373311999999991
  3.3284699999999998 11.9628999999999994 15.2444912000000006
  1.8045899999999999 10.7681000000000004 16.0257211999999996
  7.4066599999999996 10.3742000000000001 16.1178612000000001
  4.9276600000000004  0.2968220000000000 15.7654911999999996
 11.0431000000000008  8.8535699999999995 12.0846011999999998
 10.8582999999999998  0.5081660000000000 12.2564911999999993
  1.1582900000000000  2.2348900000000000 13.0829611999999997
 13.8247999999999998 13.2975999999999992 14.5513011999999993
  0.8667330000000000  6.1329500000000001 11.7076811999999997
  5.2156500000000001  9.4125399999999999 10.9027162000000004
  8.2600499999999997  5.0615500000000004 16.9440111999999985
 12.7307000000000006  1.7851500000000000 16.9107112000000015
  9.2941500000000001  9.9382900000000003 11.0336911999999998
  9.8639200000000002 11.9504999999999999 10.1564092000000006
  3.9529700000000001 12.4896999999999991 11.5972211999999999
 11.1311999999999998 12.7974999999999994 11.9549412000000004
  3.2082500000000000  5.0538800000000004 14.0882311999999992
 11.9374000000000002  6.1798500000000001 15.6545211999999996
  6.1543200000000002  1.0118400000000001 12.2604912000000006
  5.4437600000000002  4.3480800000000004 14.2435411999999992
  4.6561599999999999  2.3730099999999998 13.3199812000000009
  9.3135300000000001  1.8919200000000000 13.3275012000000004
 12.8934999999999995  0.6786130000000000 13.5075111999999997
  0.1059840000000000  9.6148299999999995 13.0538612000000001
  7.5379699999999996  2.1644199999999998 10.8139061999999999
  8.6181099999999997  6.2770400000000004 13.7437512000000002
 13.2575000000000003  5.4994800000000001 12.2117812000000008
  4.0817800000000002  6.0763699999999998 10.0999382000000004
  1.1623300000000001  3.2913899999999998 16.6525612000000010
  7.6494400000000002  0.3313310000000000 14.0348211999999997
  2.6384900000000000  7.2896500000000000 14.7646712000000004
  3.3021699999999998  8.0030699999999992 11.0051912000000005
  0.9265090000000000  0.3359010000000000 10.4879271999999997
 10.5998000000000001  9.4444199999999991 14.2642811999999992
  6.6210100000000001  3.6126299999999998 16.2697012000000001
  3.3222399999999999  2.5968700000000000 17.0179611999999985
 11.8602000000000007 12.7657000000000007 15.6530311999999991
  1.9160400000000000 13.4305000000000003 12.3717711999999995
 13.9521999999999995  1.7189200000000000 11.7453711999999992
  2.9950199999999998  2.5512700000000001 11.5844111999999999
 13.3604000000000003  4.8953499999999996 14.3483212000000009
  3.9131000000000000  1.2363000000000000 15.1765811999999993
  2.0716899999999998  0.2611930000000000 14.2957211999999991
 10.3190000000000008  2.9163700000000001 15.0027112000000002
 13.0371000000000006  3.6377299999999999 10.8852592000000001
  0.5001280000000000 10.4769000000000005 16.8218812000000000
  1.7597700000000001  7.9920200000000001 12.6669912000000000
  0.9627740000000000  4.1160800000000002 14.4639711999999996
  4.9864300000000004 10.6135999999999999 12.8047412000000005
  8.4172499999999992 12.7957000000000001 14.4877711999999992
  0.8265940000000001 13.9116000000000000 16.0139811999999999
 11.4321000000000002  6.7544199999999996 11.4829412000000008
 10.8510000000000009  1.0562400000000001 10.0000000000000000
  9.8633299999999995  5.2167199999999996 15.3789812000000001
  6.5122900000000001  5.8970399999999996 12.9665111999999993
  7.3934699999999998  1.2967200000000001 16.2549312000000015
 11.9695999999999998  8.5547500000000003 15.6869112000000008
  7.7561400000000003 13.2796000000000003 10.0718992000000007
  8.5708800000000007  8.5447799999999994 14.5257211999999996
  9.0584000000000007  3.5936200000000000 11.7379911999999997
 13.1846999999999994 12.0282000000000000 11.1821812000000005
 12.5599000000000007  2.7093400000000001 14.7188011999999997
  9.3983000000000008  5.8917700000000002 11.6090712000000007
  6.3294100000000002  5.7652599999999996 10.5592552000000008
  5.5181100000000001 13.9719999999999995 10.6645641999999992
 14.1845999999999997  8.9371399999999994 15.2450012000000008
  9.6434800000000003  1.7255499999999999 16.9158112000000003
 10.8183000000000007  3.2760699999999998 10.3858251999999993
  0.8100830000000000  7.2071199999999997 16.2013311999999985
 10.6000999999999994 11.8271999999999995 13.9715811999999993
  0.0519843000000000 11.9441000000000006 12.9062712000000008
  2.8001900000000002  4.8696500000000000 11.8901711999999993
 13.1014999999999997  9.6804000000000006 11.2469111999999996
