 H Si 
 1.0000000000000000
    14.5469080133598503    0.0000000000000000    0.0000000000000000
     0.0000000000000000   14.5469080133598503    0.0000000000000000
     0.0000000000000000    0.0000000000000000   25.5227932000000024
 H   Si 
   7  62
Cartesian
 14.5963999999999992 13.0227000000000004 11.0029932000000006
 11.2847000000000008  2.4744400000000000 13.0935132000000003
 14.4400999999999993  1.2152499999999999 15.1853631999999994
  6.9140400000000000  9.9470600000000005 14.9059732000000000
  0.5348570000000000 10.4535999999999998 11.6031131999999992
 12.2491000000000003  8.9675399999999996 14.5099032000000001
  2.7554799999999999  2.5522999999999998 14.5959731999999995
  3.4956299999999998  7.1995399999999998 10.3383231999999996
  5.7934900000000003  5.9200400000000002 12.7350632000000008
  5.3942500000000004  4.1703299999999999 11.2135832000000004
 11.1126000000000005  5.7685800000000000 13.2973231999999992
  0.7419500000000000 12.7819000000000003 15.0613632000000006
  6.3056500000000000 12.6552000000000007 12.1690231999999998
 11.8946000000000005 10.7247000000000003 10.1052452000000006
  8.0785300000000007 11.1798999999999999 12.1988331999999993
 12.4649999999999999  2.1074899999999999 14.0447032000000007
 13.5335000000000001 11.9816000000000003 13.9181431999999994
  4.7308300000000001  9.6613399999999992 12.7450431999999996
 10.7959999999999994  9.4888300000000001 13.9483832000000003
 11.2091999999999992 12.7396999999999991 14.9537031999999996
  8.1529600000000002  9.9306599999999996 10.2361962000000002
 12.6988000000000003  8.9118200000000005 11.4542432000000005
 13.2110000000000003  5.8040799999999999 14.2252331999999999
  8.9018200000000007  7.8735299999999997 11.2210032000000002
  9.1875400000000003  5.8918799999999996 10.0574002000000000
 12.4710999999999999  1.3094399999999999 10.1671241999999999
  3.5041300000000000  0.8642930000000000 11.8788032000000001
  4.8339600000000003 11.1898000000000000 11.0429131999999992
  1.2585100000000000  1.9169400000000001 11.9857832000000002
  7.5331200000000003  7.3956499999999998 13.1834132000000004
  6.8497700000000004  9.5598600000000005 13.5376431999999998
 10.6361000000000008  4.5272600000000001 11.2659532000000002
  3.2495400000000001 10.4852000000000007 14.3677732000000002
  2.7370100000000002  1.2106900000000000 15.3990132000000006
  0.3399140000000000  5.9677300000000004 12.5445732000000003
  5.6622599999999998 13.2955000000000005 14.2457832000000000
  9.0884300000000007  0.9716560000000000 14.1435732000000005
  1.6090500000000001  8.9694299999999991 14.5206631999999995
  2.5498099999999999 11.9734999999999996 10.8263611999999991
  5.2186500000000002  4.9321099999999998 14.7068031999999995
  2.4386399999999999 12.3333999999999993 13.4158931999999993
 10.5549999999999997  0.0595026000000000 10.1811822000000003
  2.8763100000000001  4.7488900000000003 14.5684731999999997
 10.8765999999999998  7.8537900000000000 12.3676031999999996
 11.1106999999999996  0.4396040000000000 14.9822932000000009
  8.3149700000000006  6.8242099999999999 15.3106632000000005
 13.4039999999999999 13.3445000000000000 12.0187732000000000
 14.4111999999999991  9.9661200000000001 12.9418232000000000
  8.4675100000000008  3.1674099999999998 14.0161432000000001
  9.6471999999999998  5.0142499999999997 14.7884732000000003
  5.4671900000000004  2.0507200000000001 12.1568231999999998
  7.4044100000000004  3.9937700000000000 10.0354299999999999
  8.9113699999999998  3.0848900000000001 11.6607032000000004
  6.8325500000000003  0.2261880000000000 11.2416332000000008
 10.2651000000000003 11.6974000000000000 13.1587031999999997
  6.1359599999999999  2.7664800000000001 14.3743832000000005
 13.5770999999999997  1.1026600000000000 12.2254032000000006
  7.4311800000000003 14.4168000000000003 15.1667432000000009
 14.2384000000000004  7.2956500000000002 10.7504582000000006
  3.6551399999999998 14.2044999999999995 13.8773932000000002
  3.4104000000000001 13.8986000000000001 10.0000000000000000
  2.0798800000000002  6.8950100000000001 13.8412632000000002
 13.1493000000000002  7.8156100000000004 15.4848032000000000
  3.1202700000000001  4.8665799999999999 10.6930952000000001
  1.8389599999999999  4.2796900000000004 12.5646831999999993
  9.0262799999999999  0.8552450000000000 11.7468132000000001
  3.9072700000000000  7.4497600000000004 12.5260631999999994
 13.1364000000000001  3.8419300000000001 15.5227932000000006
 11.3582000000000001 12.6020000000000003 11.2447231999999993
