 H Si 
 1.0000000000000000
    14.5722492106642658    0.0000000000000000    0.0000000000000000
     0.0000000000000000   14.5722492106642658    0.0000000000000000
     0.0000000000000000    0.0000000000000000   29.1006298000000037
 H   Si 
  27  93
Cartesian
  5.9488461499999996  8.5074613699999997 13.4616305100000009
  3.3312369899999998 12.8816588099999993 14.9516698600000009
 13.0744239800000006  6.8391370399999998 14.3543348999999996
  1.8174318800000000 10.7813681999999993 17.8584254400000013
  4.5709812100000002 14.3497954900000000  9.8840301700000008
  4.6158282300000000 11.6694285299999994 12.9494845499999993
  3.1431589999999998  9.5070884299999996 13.1228588700000000
  4.3030656100000000  8.0260287699999999 18.7001262100000005
  3.7503098700000002 10.5020452100000004 19.2787811799999993
  5.4880810799999997  9.6988932999999999 15.1947573699999996
  1.5213712100000001 13.0880499500000003 12.8917200899999997
  1.7078422700000000  8.3100785899999998 18.3527627200000012
  4.7891513200000002  9.7480397599999993 15.4522514300000005
  5.6021819600000002  8.2035927500000003 10.0214845799999992
  4.2457065299999996 11.6914743100000003 10.2605504500000002
  3.0324638500000001  9.8009406699999992 12.4252625999999999
  2.5707572100000000  9.4712657500000006 15.2339093099999996
  4.0371297100000003 11.4244191199999996 16.5457065099999987
  1.9177177200000000 13.0469711400000001 10.3191652200000004
  3.2880402399999999 10.1120501100000002  9.6580531100000009
  4.7813334799999998  8.6655609100000000 18.6916011699999984
  2.0390227900000002 11.4089065400000003 13.9386201599999993
  4.3162217600000004 12.3442268500000001 10.6071043800000009
  2.4637563400000002  8.3637326200000004 18.1645338400000007
  3.4247450800000001  8.0898670599999996 15.9713685000000005
  1.6540708799999999 12.3504320599999993 10.2728390300000001
  3.0409967000000000 10.5414741200000002 19.0453935899999998
  3.8914629199999999  2.7866533800000002 16.8043367100000012
 10.4105873700000000  2.2461037199999998 18.5556600899999999
  8.9052792899999993  3.9861617900000001 15.9889916599999999
  6.8523956000000004 12.1088306699999997 15.2223054900000001
 12.2972973000000003  1.2758045499999999 11.4865588600000006
  7.4265321300000000  8.9095571899999992 17.1592724399999987
 10.6721833700000008  7.7592147699999998 16.3354310799999993
  9.2459503699999992 13.4289514800000003 11.1175710599999995
  0.4603685300000000 14.0222874199999996 13.3581618599999992
  3.3663807600000002  5.5162053400000000 14.0922539699999998
 10.5434290599999994  2.6195293500000001 10.7132852799999991
  7.2019095699999998  3.1724233200000000 12.3002721299999997
  0.6190223300000000  6.3685055200000003 11.4426573200000004
  3.3224810300000001 14.3673611900000004 14.9411472700000001
  2.8109613900000001  2.1932236600000001 12.4374038599999999
 10.3498132900000002  6.7323217499999997 10.2424191899999997
 14.0030122899999991  8.3915562999999995 11.6326290799999992
 -0.1504510300000000  7.1977624499999999 14.9550258599999992
  5.8891437000000000  3.5905681899999999 17.6203641799999993
  5.3382652100000003 11.9005840999999997 17.1209457000000000
  9.5628676800000001 13.8232373499999994 16.9315867900000008
  3.6780194200000000  3.2546853900000001 14.4647274299999999
  0.4582848700000000  4.1591763200000003 17.2523535199999998
 14.2952903500000001  8.0025679499999995 18.7234991800000010
 14.3373612300000008  9.2326087799999996 13.8286127600000004
 14.3797793400000007  2.4125007300000001 15.7369232399999994
  2.4990561100000002  3.9156039100000002 18.2303468899999999
 13.8610511600000006 14.4717970900000008 10.3288643199999992
  4.2192081699999999  3.5621634400000000 11.1570610499999994
  0.1774217400000000 10.2662114500000001 10.5135105200000005
 13.0659934700000004 12.7500267600000008 13.2520527099999992
  6.1018281999999999  2.3886382199999998 10.4133880800000007
  8.9232855299999994  9.3805689999999995 13.7370223700000000
  1.4847369300000000 10.3927792399999994 14.8489661200000000
  6.1078023500000000 11.6244741900000008 13.0302881399999997
  4.4247646200000004  5.7680586600000003 11.9875180300000004
  6.3210859099999999  5.7063037500000000 18.2369434999999989
  6.8306426199999999  9.4399059699999999 12.6946089299999993
  1.0406045300000000  0.3324633100000000 15.4408189700000005
  8.6301348299999994 15.2889972499999995 18.6171193899999992
  4.3702298400000004  0.5762218900000000 12.9496662800000006
 14.0520870400000000  6.2914430100000001 17.1208287400000003
  2.3733952399999998  9.3987365000000000 10.5784981200000008
 11.6928784100000005  8.0643502199999997 11.6495421900000000
 13.9192648099999996  2.8947986100000000 11.8711400299999994
  4.0703983499999996  6.7582210900000002 15.9672293500000002
  0.4898629000000000 13.5049309300000004 17.2590429599999986
  9.3621875299999999  2.3212284799999998 12.6834090699999997
  4.5858610200000003 13.6962067699999999 18.4611607500000012
 14.1800524800000005  3.8748356600000000 13.9563407799999997
 12.9183748099999995 13.5804887000000001 18.2234914799999999
  7.7243235700000001  5.7526683600000004 14.7815394199999997
  8.4421979300000007 10.4849698500000006 15.7778881900000005
  8.5751445299999993  5.8250513499999999 19.0738324900000009
 12.1502202700000002  1.5271914200000001 15.3525471400000004
 13.4579816900000004  9.9816606199999995 17.7375855700000002
 10.1576727800000004  4.5465561699999997 17.8702876699999997
  5.5468580999999997 14.6982644300000000 10.9613348300000002
 11.7373574800000000  9.9334872999999995 16.1707541100000007
  6.8665824700000000  5.4890025099999997 12.5073594499999992
  9.1834648600000008  7.8017612600000001 18.1092439399999989
  0.7346209800000000 11.1914275599999993 16.9221361700000017
 10.8052153200000003 10.0409406299999997 12.5062613500000008
 13.7135099000000000  4.7420467400000001 10.5045958699999993
  4.6513863400000002  0.5703965600000001 16.6717474699999997
 11.9028862199999992 11.5122321400000001 18.6579477199999992
  6.9509549200000000  8.6274979199999997 10.5377084500000002
 11.7516219100000008  0.0931524100000000 13.5080457900000006
  1.0592007000000001  5.6922995900000002 13.6690370800000007
  6.3796494399999997  6.9682740000000001 16.2665804600000001
 12.4763232500000001 10.6047763100000001 14.0770716999999994
  2.7571802900000000  7.0622371199999998 10.6861632699999998
 10.1672186999999994 11.5408651500000001 17.0311642700000014
 10.9281180100000004 11.8349731400000007 11.0427363300000003
  9.4409508899999999 14.5757078300000007 13.1223967699999999
  7.0117598599999997 12.9067664400000002 11.2901372900000005
  3.8733849600000001  5.8362575500000000 18.1383336100000001
  8.2037407800000004  6.8148906599999997 11.1112317800000007
  2.4051206800000000 14.4708369799999996 18.3155933500000003
  5.7227690600000001  2.2806446500000002 13.8544046400000003
  9.5006865099999995  7.1980943499999999 14.3412921400000002
 11.4025521100000002  4.7978576000000004 10.9563960399999996
 12.0739875199999993  4.8311993800000002 14.4909363800000008
  6.6720799399999997  1.1194384600000000 15.5986357499999997
  8.1761403500000007 14.0275205100000004 15.0569707200000007
 13.2706974300000002 12.2168603099999995 10.9691632999999999
 11.8399557899999994  5.7496943399999996 16.6839798700000017
 11.4457669299999996  0.5505706299999999 17.3047467200000007
 11.0803694400000001  6.1900331099999999 12.8850781500000000
  0.8080958900000000  1.1366253100000001 11.7294992699999998
  7.7412325400000004  2.3499948399999999 17.1724012700000017
 10.5251863599999993  3.0924799200000002 14.5903633300000006
  6.0828442799999998 10.1898454300000001 18.5551886000000010
