 H Si 
 1.0000000000000000
    14.5399814335374096    0.0000000000000000    0.0000000000000000
     0.0000000000000000   14.5399814335374096    0.0000000000000000
     0.0000000000000000    0.0000000000000000    7.5694253238302780
 H   Si 
  12  58
Cartesian
 13.3968000000000007 12.4450000000000003  4.9358800000000000
  1.2555200000000000  9.1576000000000004  1.9624999999999999
  0.1117400000000000  9.1567100000000003  4.4893400000000003
  1.5185599999999999  8.6402599999999996  7.1716300000000004
  3.1448000000000000  1.0328599999999999  1.3533200000000001
  0.0843744000000000  0.6673030000000000  7.1826299999999996
  5.7194799999999999 11.9223999999999997  6.7111299999999998
  3.5524900000000001  8.8768399999999996  4.9457800000000001
 13.5129000000000001  9.2204300000000003  0.7461179999999999
  6.0995600000000003  9.9218499999999992  5.1322599999999996
 12.2148000000000003 12.5051000000000005  1.5918399999999999
  5.5998400000000004 12.3703000000000003  4.2084500000000000
  7.7670000000000003  8.2705000000000002  6.8051199999999996
 12.8772000000000002  4.0937599999999996  2.3460200000000002
  0.7250980000000000  6.2761600000000000  1.4230499999999999
  0.2381400000000000  5.9509400000000001  5.3498299999999999
  4.0438700000000001  6.3315799999999998  3.0617399999999999
  5.4682399999999998  3.1818700000000000  1.2343500000000001
  9.1548700000000007  2.7131200000000000  5.0430900000000003
 12.9898000000000007  6.3979699999999999  1.5293900000000000
  8.5248699999999999 11.9169999999999998  5.2901899999999999
  7.5237299999999996 11.3939000000000004  1.6125400000000001
  4.3151000000000002  7.5574399999999997  5.0957200000000000
  1.6786799999999999  5.4818100000000003  3.4270100000000001
  9.8530400000000000  8.9830699999999997  3.3876800000000000
  9.8723500000000008  0.1189090000000000  7.4718400000000003
  7.6753400000000003  8.1389700000000005  3.0567199999999999
  6.9505200000000000 12.6518999999999995  3.6372599999999999
 13.6954999999999991  8.1112699999999993  4.9746400000000000
  4.2317700000000000  7.8383099999999999  1.2055199999999999
  8.0737299999999994  5.8075200000000002  6.8360200000000004
 11.9162999999999997  7.5031900000000000  3.5668899999999999
 12.7838999999999992  2.3372199999999999  5.8951900000000004
 10.5107999999999997  1.8799600000000001  3.3264600000000000
  1.8946099999999999  8.2995999999999999  0.9914900000000000
  5.4820500000000001  3.3507400000000001  4.9842300000000002
 12.5830000000000002  8.9750099999999993  7.1288499999999999
  7.5997599999999998  0.2120000000000000  6.9089600000000004
 10.7911000000000001  3.5527199999999999  1.5716699999999999
 11.0266000000000002 12.7184000000000008  2.5453299999999999
 10.5898000000000003 12.8995999999999995  6.1043500000000002
  9.5913299999999992  5.6675899999999997  1.0686899999999999
  0.0694588000000000  2.0923799999999999  7.3894700000000002
  3.9313899999999999  6.3781900000000000  7.1229800000000001
  7.1583199999999998 12.5235000000000003  7.0956900000000003
 12.6959000000000000  1.2048300000000001  3.9263599999999999
  7.0178200000000004  1.5797200000000000  5.0808200000000001
  2.0444399999999998  3.1691799999999999  3.0448200000000001
  1.7201200000000001  5.3768000000000002  7.0403700000000002
  7.4401400000000004  0.3761120000000000  3.1532100000000001
 12.2707999999999995 13.3317999999999994  4.4943000000000000
 10.9168000000000003 10.6389999999999993  7.3101300000000000
  9.9165299999999998 10.7790999999999997  1.8253600000000001
  7.8285700000000000  5.8748100000000001  2.8962200000000000
 10.7317999999999998  2.2839999999999998  7.0633600000000003
  3.3335599999999999  2.5020400000000000  1.2608100000000000
  5.7581899999999999  4.7359600000000004  6.8878899999999996
  9.0335000000000001  5.1109700000000000  4.7402400000000000
  2.0534200000000000  3.1525099999999999  6.9828799999999998
  6.4762399999999998  9.1330799999999996  1.3533999999999999
  5.7224899999999996  4.6716699999999998  3.1072000000000002
  6.9038599999999999  1.4332400000000001  1.2726100000000000
  9.3475999999999999  9.6385699999999996  5.6684299999999999
 11.4847999999999999  6.7965700000000000  7.3515600000000001
 11.0847999999999995  5.9233599999999997  5.2004599999999996
  9.6459100000000007 14.5558999999999994  2.1814399999999998
 12.8773999999999997  4.3970500000000001  4.7284499999999996
  6.4811100000000001  8.5300700000000003  5.0125900000000003
 14.4331999999999994  2.3227199999999999  2.3401600000000000
  3.1564199999999998  2.7094299999999998  5.0295800000000002
