 H Si 
 1.0000000000000000
    14.5434455481759581    0.0000000000000000    0.0000000000000000
     0.0000000000000000   14.5434455481759581    0.0000000000000000
     0.0000000000000000    0.0000000000000000   26.6613862000000026
 H   Si 
  15  66
Cartesian
  6.0762700000000001 11.3068000000000008 12.7544362000000007
  6.2970899999999999 13.2098999999999993 13.7150862000000000
  6.2253999999999996 12.9870999999999999 11.1153861999999997
  8.9117599999999992 14.1830999999999996 10.6068922000000008
  6.1267300000000002  1.3260600000000000 13.9198362000000007
  8.1616400000000002 14.4445999999999994 10.5901422000000007
  8.0801599999999993 14.5596999999999994 13.2645762000000005
  6.6826400000000001  1.0396600000000000 14.3772262000000008
  4.3796600000000003  7.9021100000000004 10.3199351999999998
  8.3929899999999993 11.6820000000000004 13.6135061999999998
  8.1848200000000002  1.5633699999999999 11.5292062000000008
  8.3710599999999999  2.2982600000000000 11.3797762000000002
  5.8980600000000001  0.2381710000000000 11.8148461999999999
  8.6576900000000006 12.0137000000000000 11.6597962000000006
  7.9699099999999996 12.1290999999999993 11.2936361999999999
  1.7617000000000000  8.0367599999999992 14.5599862000000009
  4.5437599999999998  9.8467699999999994 16.4114362000000007
  2.0781600000000000 14.1747999999999994 16.2330362000000008
  3.3202199999999999 12.1730000000000000 11.1918261999999995
 12.4981000000000009 12.3095999999999997 15.0003361999999996
  5.5221099999999996 12.8483999999999998 14.9507162000000005
  2.0805500000000001  4.6304600000000002 12.6577661999999993
  3.6645500000000002 11.1836000000000002 14.7129262000000001
 11.4647000000000006 11.7924000000000007 11.6237262000000001
 13.5610999999999997  8.1015800000000002 10.7240441999999998
  9.2726199999999999  0.0435620000000000 14.1059462000000000
  2.8194499999999998  4.9084500000000002 10.3776381999999998
 12.8468000000000000 14.0901999999999994 13.6981161999999994
 11.1692000000000000  8.3691800000000001 10.4995551999999996
 10.9014000000000006 13.8955000000000002 12.5173862000000007
  7.4123999999999999  8.4054099999999998 10.8039571999999993
  1.7363900000000001 12.4474999999999998 14.8100761999999992
  1.9696899999999999 13.4267000000000003 12.5335961999999999
  7.7998099999999999  3.7290800000000002 13.3919061999999993
 13.7218999999999998 11.6044999999999998 11.2676561999999993
  3.1589900000000002  0.7671400000000000 13.1340561999999998
 11.9013000000000009  8.6430100000000003 14.5902361999999997
  5.0523400000000001  4.4998100000000001 15.5166362000000007
  5.8667100000000003  3.5448499999999998 12.0769661999999993
  8.2941299999999991  8.4175199999999997 12.9184762000000006
  6.6860600000000003  7.4983199999999997 14.3183462000000006
  9.3217900000000000  4.4499300000000002 11.5974761999999991
 11.1437000000000008 10.7495999999999992 13.8541462000000006
 11.2645000000000000  3.2392699999999999 11.7126661999999993
  2.3558300000000001  7.4517600000000002 16.6613861999999990
 11.8765000000000001  5.1153500000000003 15.0968362000000003
  4.9592799999999997  1.4268200000000000 11.8300862000000002
  4.3335400000000002  4.8859500000000002 13.3646761999999999
  2.4186399999999999  9.9596800000000005 11.5582662000000003
  0.2323730000000000  2.4591799999999999 11.0622562000000002
 11.2212999999999994  3.0375800000000002 14.0636261999999999
  7.2611299999999996 12.0425000000000004 16.4983262000000011
 14.3994999999999997 13.8043999999999993 11.9931462000000000
 10.0243000000000002  7.0175999999999998 12.0743261999999998
  4.1054100000000000  0.3911920000000000 15.2470862000000000
  7.2913300000000003  5.2088900000000002 14.9794061999999997
 13.2256999999999998  4.2790699999999999 11.0057662000000001
  4.7631399999999999  2.3473099999999998 16.3195762000000002
  5.3863500000000002  7.0809899999999999 11.0303161999999997
 14.3297000000000008  9.3178699999999992 14.4505662000000008
 11.8233999999999995  6.7277600000000000 13.4837462000000006
  5.5097600000000000 11.6524999999999999 11.4357761999999994
 14.4419000000000004 11.2814999999999994 15.4981462000000008
  0.7553920000000000  6.1544999999999996 13.6325061999999999
 11.4314999999999998  1.0893500000000000 10.7069782000000000
  0.2443010000000000  9.6704799999999995 12.0849562000000006
  5.2298600000000004  4.9778099999999998 10.2405512000000005
  9.1908999999999992 13.5786999999999995 16.2254162000000015
 14.2393999999999998  4.9054500000000001 15.3833962000000000
  8.4833300000000005 10.2607999999999997 16.2956062000000017
  1.5242700000000000  2.4495800000000001 13.0866661999999998
 13.7133000000000003  0.6011320000000000 10.2070881999999994
 10.4864999999999995 10.5420999999999996 10.0000000000000000
 13.6864000000000008  6.3047800000000001 12.1082661999999992
  4.6578499999999998  7.2022599999999999 13.1029961999999998
  0.1490990000000000  2.6076600000000001 14.9598961999999993
 12.7425999999999995  1.5188200000000001 14.9064961999999994
  9.0499100000000006  2.3226399999999998 14.6939261999999999
  3.4178000000000002  9.2048299999999994 13.4508261999999998
  8.8838100000000004 10.3652999999999995 14.1057462000000005
  6.6253099999999998  8.6659699999999997 16.2659562000000015
