 H Si 
 1.0000000000000000
    14.5295791732167459    0.0000000000000000    0.0000000000000000
     0.0000000000000000   14.5295791732167459    0.0000000000000000
     0.0000000000000000    0.0000000000000000   25.0663139999999984
 H   Si 
   4  54
Cartesian
 11.0051222800000001  3.8492756699999999 13.2597208000000002
  7.3450445300000000  2.0728285000000000 16.4493808900000005
 10.0799127199999994  5.3877166100000000 15.3810802300000002
  2.3667789300000002 10.0609690399999998 10.0188299000000001
  0.7184992000000000 12.3278820899999992 10.6287674200000009
  9.3647835199999996  6.4092364599999998 14.5807904199999996
  8.8051300900000005  0.0783572500000000 10.6881883299999991
 10.3670991200000007  8.4822716299999996 14.4617755700000004
  5.4684421199999997  7.4123916200000002 12.7765237700000007
 13.3684900899999999  3.0102820600000002 11.8979399400000005
  1.6056625300000000  9.8915072300000002 13.0986721900000003
  1.9307987499999999  5.0783128399999997 11.0783766299999993
  4.6438601799999999  5.3428545700000001 13.8865052400000000
  2.7285092299999998  9.1952047900000000 11.1743599600000003
  5.8849504899999996 11.6282708800000005 12.4649365900000006
  1.0577646199999999  1.0936240900000000 13.8941206299999997
  7.5744295499999996 11.5012213299999999 14.0663755100000003
 10.8666324000000003  5.6970927400000004 11.0268443200000004
  4.1112376900000003 12.9865014199999997 13.0662237900000004
 13.1993018600000003 12.1628813299999994 14.4840899699999994
  5.6998279299999997  4.3130521999999996 10.3949542400000006
 13.8899562999999997 10.0800679800000008 13.6540029599999997
  9.7822690300000001 10.7811808899999999 11.2342210599999994
 11.6388544899999999  0.9617939200000000 14.3149238299999997
  4.9906823700000000  9.5473149100000008 11.7293678499999992
 10.0879658899999995 13.0110008500000003 11.8501017700000002
  9.2710540600000009  1.2556890500000000 13.9933030600000006
  9.1208488400000007  2.1992076400000000 11.8080965700000000
  5.2137889900000003  6.5578825800000002 10.5363583399999996
 13.4033938399999997  8.4607162299999992 10.1130745799999993
  8.9506192099999993  5.9389358000000003 12.3381559200000002
  2.9435345300000000  7.0064606400000002 10.4782451200000004
 11.1021686899999992  3.5181081700000001 11.7951740699999998
  4.4861810200000001  2.1901772300000002 13.0842810499999995
  6.2637431200000000  3.5574659799999999 13.8215721800000004
  2.5352699500000000  4.2094739600000004 14.3763008800000005
 13.6159319500000002  2.3287615100000001 14.1364777600000000
  0.1792630000000000  4.5047265999999997 14.4932013099999999
 13.9784406400000005 13.8824858300000002 11.7864473899999993
  7.9040885799999998  2.6987506300000002 15.2326318799999996
  7.5364856400000004  4.0281213100000004 11.9055983899999998
  2.9891169099999999  1.9812413900000001 14.8421324400000003
 12.0122298199999999 13.5856673699999995 13.0050225499999996
  0.4960397000000000  1.4207713600000000 11.5892939500000001
 12.2700376799999997  8.4715232700000005 13.1912535299999991
  6.8086889700000004 13.7556801199999992 11.6519807199999992
  3.8678872300000000  4.1411861400000003 11.9468593700000003
  7.7062869599999999  7.9114854000000001 12.2456875499999995
 14.1597428000000001 10.3848007199999994 11.3093617700000006
  0.5476045200000000 13.3744145000000003 13.8873935300000007
 11.8517265599999995  9.7941936199999997 11.2751135599999994
  8.8708680500000003  9.7457995200000003 13.1550303599999996
  6.5241780800000004  8.4763029400000001 10.2754215999999996
  8.4268674899999993 13.6172224899999996 13.3800797599999992
 14.4252520600000000  5.0725294099999996 12.2288847900000004
 12.8694588799999998  6.7532937000000004 11.7243996900000003
  4.7723327099999997  0.2731485400000000 11.8485208899999996
  2.0361996400000000 12.1428544699999996 12.6252136600000000
