 H Si 
 1.0000000000000000
    14.5307357155388193    0.0000000000000000    0.0000000000000000
     0.0000000000000000   14.5307357155388193    0.0000000000000000
     0.0000000000000000    0.0000000000000000    8.6430200171773812
 H   Si 
   3  69
Cartesian
 12.7783999999999995  2.8348499999999999  0.0694810000000000
  6.4985299999999997  3.7365599999999999  4.7468000000000004
  6.1730700000000001  6.5291699999999997  2.9356000000000000
  2.4087700000000001 10.7910000000000004  4.9567699999999997
  7.5383800000000001 13.4055999999999997  1.2242800000000000
  1.6701999999999999 10.1207999999999991 -0.0723709000000000
  9.4591399999999997  8.8320600000000002  6.6198600000000001
  4.9258600000000001  6.0414300000000001  3.5812300000000001
 13.9490999999999996  3.6608999999999998  3.3775599999999999
 13.0532000000000004  7.1966299999999999  7.7793099999999997
  5.1758699999999997  3.7368500000000000  3.9917600000000002
 14.2760999999999996  8.2090499999999995  6.0314600000000000
  4.7149400000000004  1.5316200000000000  8.1706500000000002
  1.2702000000000000 12.2006999999999994  2.9611999999999998
  5.7992100000000004 12.4724000000000004  6.5038900000000002
  4.0994200000000003  1.5102400000000000  5.8927300000000002
 13.9680000000000000  9.8322299999999991  1.1515100000000000
  7.6067499999999999 10.6501999999999999  4.1032299999999999
  3.7472300000000001 12.6328999999999994  5.4885500000000000
  0.5802590000000000  6.1956400000000000  5.0857799999999997
  2.4539399999999998 14.5137000000000000  5.9646600000000003
  3.3047499999999999  8.5281199999999995  0.2143840000000000
 13.8016000000000005  1.2753399999999999  3.9518000000000000
  2.0631499999999998 12.3340999999999994  0.5954890000000000
 12.8566000000000003  1.4585300000000001  6.0532300000000001
 11.8095999999999997 14.5071999999999992  0.5690720000000000
  7.1070700000000002  9.0002600000000008  5.8023600000000002
  1.1688600000000000  6.6980599999999999  2.7454800000000001
  1.9143800000000000  3.0862099999999999  3.3593299999999999
  3.8499200000000000  9.2357399999999998  3.9662600000000001
 13.5129999999999999  3.2118899999999999  7.4089799999999997
 10.4784000000000006  7.9192900000000002  1.6565000000000001
  9.3583800000000004 12.7367000000000008  6.6972899999999997
  1.3284000000000000 14.3005999999999993  3.8603399999999999
 12.0587999999999997 10.4570000000000007  8.5989100000000001
  4.7892200000000003 12.5982000000000003  3.2766500000000001
  9.6884399999999999 13.6662999999999997  0.1634180000000000
  3.8952700000000000  6.8587899999999999  7.2140000000000004
  5.6864499999999998 13.8498000000000001  8.4069099999999999
  7.5521500000000001 12.8101000000000003  5.1143999999999998
 10.4162999999999997 11.4406999999999996  1.2557799999999999
 10.8392999999999997  9.8961900000000007  5.0223000000000004
 13.8946000000000005  7.5297499999999999  1.3532599999999999
  2.4742799999999998  1.6156400000000000  0.2361590000000000
  4.2969499999999998 12.4053000000000004  1.0396099999999999
 12.9459000000000000  9.1338500000000007  4.3137299999999996
  5.1132000000000000  7.7140700000000004  5.3170799999999998
  6.6459099999999998 14.1294000000000004  3.2911299999999999
 12.8422000000000001  5.3981000000000003  4.3925200000000002
  3.2188400000000001  7.5944799999999999  2.4645000000000001
 13.5093999999999994 14.1449999999999996  7.3939300000000001
  5.0827099999999996 10.0983999999999998  0.7874300000000000
 12.1417999999999999  0.3378890000000000  2.7476400000000001
  0.7399530000000000 10.2020999999999997  6.4790299999999998
 12.4487000000000005  5.1117200000000000  6.7483000000000004
  1.2025600000000001  3.6568700000000001  8.1939200000000003
 12.3125999999999998  7.3159500000000000  2.9530200000000000
  6.4949199999999996 10.4313000000000002  7.6031800000000000
 13.2044999999999995 11.7932000000000006  6.8552499999999998
  9.5322600000000008  9.9050200000000004  2.8400500000000002
  5.0412900000000000  1.3821600000000001  3.7232400000000001
  2.1352099999999998  5.2517399999999999  6.5996800000000002
 13.6844000000000001 11.1270000000000007  3.1011199999999999
 11.7425999999999995 12.5889000000000006  3.1889799999999999
 11.0086999999999993  8.3717600000000001  8.1615900000000003
  1.3123600000000000 14.2299000000000007  8.0238600000000009
  8.7507900000000003 10.8785000000000007  7.9407800000000002
 11.2630999999999997 12.1877999999999993  5.4276000000000000
  3.2768799999999998  3.6593000000000000  5.2847000000000000
  2.6601400000000002  1.1427300000000000  2.5299499999999999
  5.5930400000000002 10.4679000000000002  2.9706999999999999
  1.0094399999999999  4.4866900000000003  1.8189299999999999
