 H Si 
 1.0000000000000000
    14.5318920737852491    0.0000000000000000    0.0000000000000000
     0.0000000000000000   14.5318920737852491    0.0000000000000000
     0.0000000000000000    0.0000000000000000   25.3296218999999994
 H   Si 
   3  56
Cartesian
 10.0497999999999994  8.2349300000000003 10.0000000000000000
  8.8190500000000007  5.7447600000000003 10.9161518999999991
  1.9951600000000000  5.6137300000000003 14.3911019000000007
 14.2396999999999991  1.7001400000000000 10.0107709000000007
  9.0219699999999996  6.3931199999999997 13.7668019000000008
  5.9167199999999998  1.1137100000000000 15.2209619000000007
  1.2316600000000000 13.1262000000000008 13.6114119000000002
  7.4720199999999997  9.5693900000000003 14.2015118999999999
 11.6751000000000005 10.7780000000000005 10.6056529000000008
 12.0854999999999997 13.6880000000000006 13.1715619000000004
  1.2203700000000000  7.6723699999999999 13.5954519000000005
  8.1149500000000003  8.0608000000000004 12.3896818999999994
  9.4689999999999994  9.8973399999999998 11.3714718999999995
  6.7134200000000002  3.4318800000000000 10.7311628999999993
 12.9847000000000001  0.8359940000000000 14.4935819000000006
 10.4284999999999997 12.2627000000000006 14.1063118999999997
 14.4202999999999992 13.7996999999999996 10.0146429000000001
  2.0046200000000001  3.5480499999999999 12.0983719000000001
  8.0642600000000009  0.8693680000000000 14.3108018999999995
 14.3587000000000007  3.3477100000000002 11.5407618999999997
  3.3373400000000002 13.3612000000000002 12.3426518999999999
 12.9010999999999996  2.6143800000000001 13.0619619000000000
 13.2959999999999994  5.0312099999999997 10.3668829000000002
  4.4643400000000000  0.8714630000000000 11.7089418999999992
  3.3040300000000000 10.1409000000000002 10.4589528999999999
 12.3711000000000002  4.5024499999999996 14.3795418999999995
  2.3481800000000002  2.5878399999999999 14.1986018999999999
  1.6298500000000000  4.3909799999999999 15.3296218999999994
  7.9941399999999998  4.3316499999999998 13.7563519000000003
  6.5912100000000002 11.3175000000000008 10.5163388999999992
  9.4889700000000001  2.4936099999999999 13.7004619000000005
  2.4228299999999998  5.8612500000000001 12.4048718999999998
 13.9869000000000003 12.7660999999999998 12.1803618999999994
  5.8833099999999998  4.0339400000000003 12.9209119000000001
 10.9771999999999998  2.0196000000000001 11.8110019000000008
  1.0394099999999999  0.6624470000000000 14.7976118999999997
  6.7422199999999997  1.1420300000000001 10.7699488999999993
  4.6731600000000002  6.1806999999999999 13.1632519000000006
  1.8560800000000000 11.3232999999999997 14.9048219000000000
  1.2597900000000000  8.6258099999999995 10.2405279000000000
  5.2763799999999996 10.0539000000000005 13.8169819000000000
  5.1752399999999996  9.4745699999999999 11.5386219000000008
 11.4038000000000004  6.4406800000000004 13.4443619000000005
  3.1391300000000002  2.3071299999999999 10.4209338999999996
 12.5548000000000002  6.9696100000000003 11.5243319000000000
  8.7061700000000002 11.2568000000000001 13.0650318999999993
  8.0250599999999999 14.4374000000000002 12.1322419000000004
  2.4313099999999999  6.5006899999999996 10.0341169000000008
  4.9858000000000002 12.4207999999999998 13.6119319000000001
 12.0875000000000004 10.4102999999999994 14.3008118999999994
 10.3297000000000008 14.3934999999999995 11.6616119000000005
  5.9466900000000003  7.2395500000000004 11.5893619000000001
 12.0083000000000002  8.1216100000000004 14.9508618999999996
 13.2508999999999997 10.5183999999999997 12.2905718999999998
  4.5278299999999998  2.2917200000000002 13.5395818999999999
  3.3957500000000000 12.4840000000000000 10.2131229000000001
  2.6919900000000001  9.3179900000000000 14.0338919000000004
  6.8996300000000002 12.5419999999999998 12.4487319000000003
 14.2929999999999993  8.5562199999999997 11.9064318999999994
