 H Si 
 1.0000000000000000
    14.5825907057694035    0.0000000000000000    0.0000000000000000
     0.0000000000000000   14.5825907057694035    0.0000000000000000
     0.0000000000000000    0.0000000000000000   29.0576733999999952
 H   Si 
  36  90
Cartesian
 13.4446524499999995  0.6302419600000000 16.8753354699999996
 12.0960511200000003 10.1849359600000007 20.7296564200000013
 11.6395067599999997 13.7826244599999992 11.6022149199999998
 14.2319732299999995 14.2696795900000009 11.7928776499999994
  9.7285888000000007 10.0540850099999997 20.9959448199999983
  2.9457187899999999 12.7722049799999997  9.2190431000000004
 10.1071577700000006  1.2464689700000000 14.1001328000000008
 13.1199799200000005 11.4067533799999996 14.0362672699999997
 11.6308607800000008 10.6911107100000002 12.2154766299999995
 11.8965600400000007  1.7036440399999999 18.0636897900000015
  0.8665993100000000 12.6913005299999995 16.3582662600000006
 11.0150917699999997 11.3019767400000006 15.3835578399999999
  4.4080293599999996 12.2207754600000005 19.2513836599999983
 13.8484277500000008  1.5922405399999999 14.4568715099999991
  0.8269612100000000 14.2777956300000000 17.0885098299999996
 -0.4667111300000000 10.9402700100000008 12.3771879200000008
 11.1619803500000003 12.0233569199999994 17.4981530399999983
 11.3580485800000002 13.2841555699999994 19.4873301000000012
  6.4362336800000000 11.3360537899999994 13.8354627800000003
  9.4779252799999991 12.9429609299999999 15.2876032899999998
  9.9746116300000001 13.2964584800000001 15.7216961000000008
 14.0646704899999992  1.0823301800000000 19.1515746699999987
 17.0002416600000004 15.7824491099999999  9.5931596900000002
 10.4462344100000006 13.1598830899999992  9.6463722700000005
 11.5372577300000003 13.1371468199999999 13.9111768999999992
 12.2581861199999995  1.4061954600000000 12.7598467600000003
 14.6178163100000003  1.6000948600000000 18.9488096299999995
 13.1137235400000005 12.0733793200000008 10.4800336699999992
 12.6980029000000005 12.7159489699999995 16.0121276799999990
 12.0419009900000002 15.0372588900000004 15.1980350800000004
 12.6025262599999994 11.7750456099999994 10.9311611400000004
 10.9678088000000002  0.0623735600000000 17.0218091499999993
  1.1423483600000000 11.9240854800000005 12.0312315000000005
 13.8835526300000005 13.6779686900000002 14.1771574099999995
  9.5248976699999996 11.4303389800000001 12.9625635799999994
 12.2746570599999991  0.7200077800000000 12.4799822200000001
  7.6039900800000000  6.2646433400000001 18.0344429999999996
  7.6398348199999999 11.3760746800000003 16.9856685200000008
  1.9831926000000000  1.6469420100000001 10.9253186499999995
 14.3823495799999996  4.3633529600000003 12.8870000000000005
  1.7224995599999999  3.3343794199999999 13.8042029900000003
  2.7685814700000000  6.5407433299999997 14.3521547500000004
  5.2237978399999996  6.2582763999999997 17.6240752500000006
 10.2995664199999997 13.7738603200000007 10.9869547700000005
  5.1829338199999997  8.2706204299999992 11.2139772099999995
  5.6564481300000002 13.2882735499999995 10.6888895500000007
  2.6999375600000000  9.6083092600000004 18.5725519500000011
  1.4718342700000000  9.6480565600000006 16.6278847200000008
  6.6116912399999999 13.0761131800000001 15.8184770799999992
 10.8096478299999994 10.1668543000000007 19.9928273999999995
  8.3327195599999992 13.0323644099999996 18.4898076099999997
  5.7108553100000004  3.1643239400000001 15.1252522999999997
  2.3040093700000002 12.8201471999999992 12.2899041400000009
 12.8083890900000004 12.7421685199999999 14.5504911900000007
  3.1824584499999999  7.2999250800000004 18.5852798800000016
 13.8737980099999998  8.0228065500000003 10.7595744199999999
  6.1777572500000000  9.8538207100000008 17.9526249600000014
 10.5342907700000001 12.2405124399999998 18.8290134699999996
 12.4951000400000005  7.7171010000000004 12.6641121200000004
  7.6343213800000003 13.7331550399999998 13.8320746499999991
  9.3876390900000004  3.5958939700000001 16.5976529399999997
  2.9798519099999998  5.2766246399999996 10.9957216100000004
  3.4953417199999999  2.5638765700000001 12.4069569499999997
  2.3406476000000001  9.2637666500000009 11.6904110600000006
  3.7506639200000000  0.2530649800000000 16.0721929199999991
  3.8363421500000001  9.9320205500000007 10.1083345999999992
  8.6151945100000002  1.2439738400000000 14.0609973499999992
  5.9806303700000001  0.1165365600000000 12.5151903299999994
  1.5478306399999999  7.1729946599999996 11.0152051499999999
  4.3459313200000000  4.2147538600000001 16.7773590900000009
 11.2048703799999991  6.5071328599999996 15.7915757800000005
  4.3224895500000002 12.5843807499999993 16.0296907500000003
 11.9706293899999991  8.5389732800000004 16.6590750300000003
  7.5916932199999998  1.7228391400000000 12.0080183900000002
  8.9178278899999999  5.8120975200000000 16.1163764500000006
 12.0315910600000002  1.0527970700000000 16.6578561500000006
  6.9774966899999997  8.4401015299999997 14.8161257299999995
  7.1762177700000001  9.5095728800000003 11.3486808000000003
  4.8950799299999996  1.0096423299999999 17.9302245300000003
  4.3839413100000000  6.2768344999999997 12.6425763000000000
  0.4421246800000000  4.5490130300000002 17.1432610099999998
  3.6370589999999998 12.2609500499999999 10.4378134500000002
  0.8006632800000000  6.4673118399999998 13.1075407800000008
  7.2953845299999998 11.7089610700000009 10.6840960799999998
 10.7106652400000009  8.2641639700000002 18.6172681699999991
 14.3154517099999996  8.1273705100000004 16.4993616799999998
  7.0544206799999998  0.2511725900000000 17.3648301300000014
  9.2184090800000007  6.4764204000000003 12.3781852000000008
 14.2188797099999995  8.1557719399999993 14.1209971900000006
  7.6889396600000000  2.1353274199999999 15.9871418900000002
  0.9685945700000000  0.1328623400000000 12.3111019099999996
  8.9394481100000007  4.7654300500000000 10.8858221999999998
  0.7142140700000000  1.3237298399999999 14.3075461300000004
  7.7365933599999996  6.3515635200000000 14.1717444399999994
  4.2742798500000001 11.2704193200000002 18.1149458299999999
 10.5396270899999998  3.2397161200000002 11.5444141699999996
 11.2170993400000008  6.0082918899999997 13.4917592600000003
  2.3181550099999999  4.6647865800000003 15.6303367899999994
  1.5329156300000000  2.6015295500000000 17.9269798400000013
  9.1313082600000008  4.5827176500000002 18.7393238599999989
  5.3086409999999997  8.2378522200000006 16.4159524800000014
  3.7393106500000002  9.7538689900000008 13.5112371400000004
  3.2031539699999998  8.5404281500000003 15.4213631499999995
 10.7635028599999991  9.8509741700000006 15.1527954600000001
 12.5884852400000007  4.9259736600000004 16.9409271100000005
 12.0137459000000000  3.8121348500000001 13.3723249800000001
  8.3666881499999999  8.4647452199999993 18.1196235700000017
  9.2845034299999991  8.6198861400000002 11.5776290199999998
  4.6210396400000002  1.3140777900000000 14.0617533699999999
 11.5516745800000002  3.2076443600000002 15.7420423399999994
 11.1194364900000000  5.8713278400000002 18.6457399300000013
  1.0730739100000000 11.5545358100000009 15.4258183800000008
  1.5293224900000000  0.8114850100000000 16.4115038999999996
 11.0016206400000005  9.4874294300000006 12.8338023200000002
  8.6414898000000004  9.5141104399999996 16.0246266300000002
  3.0324081100000000 11.8261937300000000 14.2418441199999997
  6.8974208299999997  3.8772752800000001 11.5727834299999994
  0.1483805900000000  9.6105985300000007 12.3353425699999999
  6.0942626500000001  4.8670513599999996 13.5114994500000005
  1.1343204499999999  3.8020913699999999 11.0732600699999999
  6.0686679200000002  9.9585270399999999 13.3439821599999995
  4.7053340099999996  3.7043725099999998 10.6952885900000005
  8.7937160700000003 12.5061620700000002 12.2287107899999992
  9.5115887899999993  1.3446766500000000 10.7829229200000007
  3.7942230200000000  2.9193151400000001 18.6485635800000011
  1.0669246600000000  6.6258869300000001 17.8427928000000016
