 H Si 
 1.0000000000000000
    14.5791451707353072    0.0000000000000000    0.0000000000000000
     0.0000000000000000   14.5791451707353072    0.0000000000000000
     0.0000000000000000    0.0000000000000000   10.5829380304000154
 H   Si 
  42  83
Cartesian
  1.7291799999999999  5.6169599999999997  0.6631629999999999
  3.6666099999999999  7.4454900000000004  5.4814600000000002
 11.6710999999999991  4.4423000000000004  0.1296560000000000
 14.1731999999999996  8.4127799999999997  5.3028100000000000
 12.9085999999999999  2.5841200000000000  9.0495599999999996
  1.7956600000000000  4.8362299999999996  3.4657300000000002
  3.0484000000000000  3.3281900000000002 10.2322000000000006
  1.6520800000000000  1.5554200000000000  8.2983499999999992
  1.6109000000000000  4.7838300000000000  5.9532699999999998
  3.2825799999999998  4.0579099999999997  4.4351000000000003
  2.2405599999999999  5.7994000000000003  0.2068890000000000
 12.9357000000000006  6.6736199999999997  4.8567299999999998
 13.4585000000000008  7.0616599999999998 10.0421999999999993
 14.0801999999999996  6.8485199999999997 10.2674000000000003
  1.0656300000000001  5.8707900000000004  8.2627299999999995
 13.5907000000000000  3.5689899999999999  3.5248800000000000
 12.4621999999999993  5.1153899999999997  2.9424999999999999
  1.1476100000000000  5.2630499999999998  5.7356900000000000
  2.8622999999999998  8.0331799999999998  1.4974000000000001
  1.5069800000000000  5.2612300000000003  8.1333900000000003
 13.5322999999999993  2.4819100000000001  1.2193499999999999
  5.2135499999999997  5.3713499999999996  2.1491600000000002
 12.3225999999999996  7.7520199999999999  0.9739190000000000
  1.5231600000000001  2.3241200000000002  1.9835499999999999
  2.8660700000000001  3.4671500000000002  9.5317799999999995
  5.7342800000000000  4.5908199999999999  9.3094400000000004
 14.5815000000000001  6.3905300000000000  2.0101300000000002
  0.7953170000000001  7.6914499999999997  7.5241600000000002
  1.2888299999999999  4.8204599999999997  2.9537499999999999
  0.6405890000000000  8.3257999999999992  7.7817100000000003
  3.3260900000000002  7.7742000000000004  7.9532299999999996
  2.0510999999999999 10.4491999999999994  7.1240800000000002
  0.7140649999999999  0.5204940000000000 10.0554000000000006
 11.5736000000000008  6.8378699999999997  9.8328399999999991
 13.9940999999999995  2.1413400000000000  0.7047070000000000
  4.5031900000000000  1.5971800000000000  9.7080400000000004
  4.3580300000000003  4.3870800000000001  7.6074299999999999
 13.3660999999999994  9.1932700000000001  9.0822699999999994
  1.4515499999999999  2.8295300000000001  1.4252100000000001
  1.1423300000000001  0.0994889000000000  1.1722500000000000
 14.0455000000000005  6.4832200000000002  2.5146700000000002
 13.9533000000000005  6.3299700000000003  7.1634300000000000
  6.7946900000000001  0.0329528000000000  4.3403200000000002
 10.2861999999999991  7.2462400000000002  9.1765000000000008
  3.6568299999999998 12.7004999999999999  1.9965100000000000
 12.1372999999999998  9.8803699999999992  3.2658499999999999
  8.2457700000000003  3.5039500000000001  4.5885300000000004
  2.7182400000000002 13.0236999999999998  8.5456199999999995
 11.0912000000000006  5.6314599999999997  2.7351399999999999
  6.2069799999999997 11.3244000000000007  9.9732400000000005
 10.0383999999999993  1.9999600000000000  1.1554100000000000
  5.4022800000000002  9.6887799999999995  6.4157599999999997
  8.6661400000000004 10.6702999999999992  2.7300300000000002
  5.0029000000000003  3.2636200000000000  6.9970999999999997
  6.3625600000000002 10.7901000000000007  3.1694200000000001
  7.3738400000000004 14.0785999999999998  2.0563099999999999
 11.6013000000000002  4.3903100000000004  5.9613199999999997
  4.7415300000000000 11.2408000000000001  4.9001999999999999
  4.7309900000000003 13.6457999999999995  5.1494000000000000
  9.2885299999999997  9.1480999999999995  6.0045099999999998
  9.2231199999999998  8.6473899999999997  1.8010999999999999
  1.4289200000000000 11.8355999999999995  6.9997999999999996
  3.7881399999999998  2.7473600000000000  4.9778000000000002
  7.5060399999999996 10.4467999999999996  7.0309299999999997
  2.0071400000000001  1.5348299999999999  4.4342699999999997
  6.7942999999999998  6.5822500000000002  6.4413299999999998
  0.5445730000000000 11.4679000000000002  1.2746599999999999
  7.7776899999999998  1.4848200000000000  1.0057100000000001
 10.1382999999999992 10.5831999999999997  4.4230799999999997
  8.9943799999999996  5.2131499999999997  9.6315100000000005
  0.1379750000000000 13.7636000000000003  1.9477599999999999
  4.1862700000000004 10.2223000000000006 10.1275999999999993
 12.7446999999999999 11.2102000000000004  1.0829800000000001
  5.7994599999999998 12.3864999999999998  1.5081599999999999
  6.4183100000000000 12.5320000000000000  7.9885599999999997
  7.5816299999999996  1.3898800000000000  9.1303699999999992
 11.3777000000000008  7.8725500000000004  2.1742599999999999
  7.6614800000000001  7.1205200000000000  2.6051500000000001
 11.1359999999999992  8.0940899999999996  7.2251200000000004
 14.0936000000000003 13.9350000000000005  4.2641000000000000
  6.3232400000000002  7.5676600000000001  8.6244999999999994
  6.6679100000000000  5.2813699999999999  1.7587200000000001
  5.4552500000000004  1.9169200000000000  3.5205199999999999
 11.3241999999999994  0.3767840000000000 10.4001000000000001
 13.8041999999999998 11.1735000000000007  6.5716099999999997
  3.3874599999999999 10.6574000000000009  3.1003599999999998
 12.8358000000000008  2.9025500000000002  4.5415999999999999
  4.6196700000000002 13.9610000000000003  7.5052700000000003
 12.0652000000000008  1.4065000000000001  8.3521800000000006
 14.4786999999999999  1.4655600000000000  5.3795099999999998
 12.4822000000000006 13.5113000000000003  1.2641500000000001
 10.5574999999999992  2.6954300000000000  7.1027899999999997
  7.1331400000000000  3.1210000000000000  2.4336199999999999
 12.4794999999999998  9.8772199999999994  8.0956799999999998
 10.3771000000000004  4.3358600000000003  0.8159640000000000
  1.0650500000000001  0.1607520000000000  8.6198499999999996
 12.7056000000000004  6.5939899999999998  6.3316299999999996
 10.9397000000000002  1.5609900000000001  3.4312000000000000
  1.3876900000000001 12.6654999999999998  4.7998799999999999
 13.9925999999999995  9.7045800000000000  4.6807900000000000
  7.0762999999999998  4.1908000000000003  6.4401700000000002
  6.7109699999999997  5.5984900000000000  9.9750499999999995
  5.0736699999999999  7.7881099999999996  5.2163399999999998
 13.7599000000000000  0.2624890000000000  7.1887600000000003
  9.2390600000000003 12.7114999999999991  1.6237299999999999
  8.6703200000000002 14.2684999999999995  5.8996899999999997
  8.4968699999999995  3.3571300000000002  8.1717399999999998
 12.6400000000000006 13.1616999999999997  6.0759999999999996
  2.9567199999999998 14.0265000000000004  3.8215300000000001
  5.3307500000000001  1.4758800000000001  8.4419500000000003
  9.9124900000000000  5.2773700000000003  4.6618800000000000
  9.5150500000000005  9.2267499999999991 10.0581999999999994
  4.3578000000000001  8.8212100000000007  8.3037200000000002
  2.5287500000000001 11.8634000000000004  0.0672513000000000
  9.9309999999999992 13.0152999999999999  9.7614000000000001
  8.2993199999999998 13.8949999999999996  8.2893899999999991
  3.9337100000000000  8.9762400000000007  1.5586500000000001
 10.5678999999999998 12.7759999999999998  5.0953999999999997
  8.4842499999999994  7.1014699999999999  4.8672599999999999
 11.3066999999999993 10.9426000000000005  9.7580600000000004
  1.0951200000000001 10.6288000000000000  3.3983099999999999
  9.5681799999999999  1.7623000000000000  5.1929800000000004
  5.6790700000000003  8.4740500000000001  3.0422899999999999
 10.9710000000000001 13.7446000000000002  2.9495200000000001
  7.4950700000000001  9.5420499999999997  9.2712800000000009
