 H Si 
 1.0000000000000000
    14.5284224467457541    0.0000000000000000    0.0000000000000000
     0.0000000000000000   14.5284224467457541    0.0000000000000000
     0.0000000000000000    0.0000000000000000   27.5700806000000007
 H   Si 
   4  78
Cartesian
  8.3952299999999997  8.7279400000000003 17.4750805999999983
  6.5510999999999999  0.5646400000000000 13.3057005999999998
  6.7520499999999997  8.7890200000000007 11.0944205999999994
 13.1594999999999995  1.3573599999999999 13.0073305999999995
  1.3562500000000000  4.1175300000000004 13.9077406000000003
 12.7331000000000003 13.9581000000000000 16.9053106000000000
  9.4003599999999992 12.6760999999999999 17.3361505999999999
  0.6530180000000000  0.4294170000000000 14.8433405999999994
  9.0873500000000007 11.8415999999999997 11.6719506000000006
  5.6496399999999998  5.5257800000000001 12.3559505999999999
  0.0356753000000000 12.7719000000000005 11.5039505999999996
 12.0083000000000002 13.5579999999999998 14.5611706000000005
  2.0168800000000000  1.3086199999999999 11.2827906000000002
  3.4979200000000001 12.0702999999999996 13.9353306000000003
  3.9202800000000000 10.2317000000000000 10.7154465999999999
  9.4240899999999996  3.1737700000000002 10.5289566000000008
  9.4869400000000006 14.0640999999999998 12.1851806000000007
 13.6790000000000003  4.0505899999999997 14.4431706000000002
  1.6380100000000000 12.9301999999999992 15.3838006000000007
 12.4669000000000008  4.4136100000000003 10.9897106000000004
  7.5270099999999998  0.9526940000000000 12.2141806000000006
 13.2411999999999992  7.8858400000000000 10.0000000000000000
  6.6328100000000001  6.7254500000000004 10.7002436000000003
  8.3478600000000007  9.7294199999999993 15.8851106000000009
 12.4387000000000008  2.9473699999999998 12.8831305999999994
  4.2552500000000002  1.5266599999999999 13.8944206000000001
 12.5332000000000008  9.8383900000000004 11.1896906000000005
 10.6967999999999996 10.2403999999999993 12.7086305999999993
 14.0241000000000007  1.3767000000000000 16.6552505999999987
  6.0159900000000004  0.7307110000000000 10.3811636000000007
 13.5778999999999996  6.1609999999999996 11.6828806000000007
  2.3821800000000000  4.8552200000000001 10.0596426000000001
  5.6595800000000001 13.0297000000000001 10.7281346000000006
 10.5105000000000004  5.2036600000000002 10.0318366000000001
  6.8285799999999997 11.9646000000000008 12.4350705999999995
  4.3664100000000001  1.7696000000000001 11.5189006000000003
  2.0123799999999998  1.8502600000000000 13.5895805999999997
  8.2943499999999997  3.0885500000000001 12.5323106000000006
 10.3162000000000003 10.9478000000000009 16.2645406000000001
 10.6356000000000002  3.3335300000000001 15.9125105999999992
 13.0681999999999992  6.4119999999999999 13.8727205999999992
  3.2914900000000000  8.8288499999999992 16.2636205999999994
  7.9562299999999997  1.2134900000000000 17.5700806000000007
  5.9717200000000004  6.3053299999999997 16.8102306000000006
 10.0629000000000008  0.2134080000000000 14.1358905999999998
 14.5031999999999996 10.6446000000000005 12.3834005999999999
  6.3944500000000000 10.9824999999999999 15.9620905999999998
 10.3796999999999997  2.4535100000000001 13.7454906000000001
 13.6715999999999998 14.4132999999999996 13.1128906000000001
  7.7164099999999998  5.9988599999999996 15.3638505999999992
  1.2557300000000000  5.5167599999999997 11.9902806000000002
  1.6378900000000001  7.4602000000000004 15.3930406000000009
  3.7265899999999998 12.3626000000000005 11.5662605999999997
  6.5396000000000001 12.8463999999999992 14.6605906000000008
 12.0481999999999996  7.9927599999999996 16.4471905999999990
 12.8529000000000000  3.3652799999999998 16.4601706000000014
 10.2725000000000009  0.8197140000000001 10.2682096000000005
  4.6733300000000000  4.0112300000000003 10.8831246000000004
  2.0263100000000001 13.7262000000000004 10.8532346000000004
  4.5839600000000003 13.9713999999999992 14.8294206000000006
  1.8614400000000000  9.3712599999999995 11.6146505999999992
  8.2476099999999999 14.1021999999999998 15.7887705999999994
  2.1485900000000000  7.3754799999999996 13.0237105999999994
  0.5461210000000000 11.2256000000000000 16.7358906000000012
  1.9942200000000001  5.2289399999999997 15.9207306000000006
  9.1470599999999997  6.9112400000000003 11.0256705999999998
  5.5715199999999996  8.6393900000000006 13.7196806000000002
  6.0022099999999998  9.9326600000000003 11.8194706000000007
 11.6934000000000005 11.3031000000000006 14.5388906000000002
  9.7480700000000002  5.4782799999999998 16.3928405999999995
  7.7440600000000002  8.0893200000000007 14.4459406000000001
  3.2368000000000001 13.8526000000000007 16.7245206000000017
  9.7275200000000002  8.0813600000000001 13.1092306000000001
  4.2315100000000001  6.6072100000000002 13.6376305999999996
 13.9221000000000004 10.4644999999999992 14.6218806000000008
  6.0586000000000002  2.6386300000000000 17.4692605999999984
 13.9336000000000002  8.1701099999999993 15.1772506000000007
  7.0416200000000000  4.3804400000000001 13.9132406000000000
  5.4060600000000001  3.1059500000000000 15.2256105999999996
 10.9687999999999999  6.7873500000000000 14.6396206000000006
  4.2717599999999996  5.1482000000000001 15.5953005999999998
  4.3458300000000003 10.2347999999999999 14.8609805999999995
