 H Si 
 1.0000000000000000
    14.5538280032082756    0.0000000000000000    0.0000000000000000
     0.0000000000000000   14.5538280032082756    0.0000000000000000
     0.0000000000000000    0.0000000000000000    6.9374090522413630
 H   Si 
   7  52
Cartesian
  3.1355300000000002  6.7450200000000002  5.2370099999999997
  0.5597620000000000 12.8214000000000006  2.7895300000000001
  1.2285299999999999  8.3429800000000007  3.3637400000000000
  7.6805199999999996 11.3775999999999993  6.4132100000000003
  1.4897300000000000 14.4460999999999995  4.3365200000000002
  3.7985000000000002  0.2582720000000000  1.9208400000000001
  0.4698860000000000  9.4117499999999996  0.2496770000000000
 11.5426000000000002  9.5124700000000004  3.9253999999999998
 13.0942000000000007  8.1090599999999995  5.1631299999999998
 14.0050000000000008  6.8589500000000001  1.6742300000000001
 13.5615000000000006  0.8287090000000000  2.3213300000000001
  0.2703690000000000  7.3731600000000004  3.7602600000000002
  1.1540900000000001  4.2940600000000000  6.0205500000000001
 12.8827999999999996  0.0929613000000000  0.1004340000000000
  8.4447700000000001 10.5533000000000001  0.3790800000000000
 12.0997000000000003  9.6544500000000006  1.4709399999999999
 12.8986999999999998 13.3987999999999996  4.9322600000000003
  4.6004699999999996  1.3997800000000000  2.3304100000000001
  2.4566400000000002  4.7029800000000002  2.7810400000000000
  0.1605210000000000 13.9625000000000004  3.6781600000000001
 11.6663999999999994  3.5124700000000000  1.3185800000000001
  2.7752100000000000  2.6786200000000000  5.8787300000000000
  5.4919300000000000  6.0123199999999999  6.7282999999999999
 11.6934000000000005  0.4030140000000000  3.5994899999999999
  4.2397099999999996  4.9125100000000002  1.3575500000000000
  0.5162520000000000  4.5938800000000004  1.3760900000000000
  3.6180500000000002  2.9073400000000000  3.7341500000000001
  8.4914900000000006  1.0934600000000001  1.5127600000000001
 12.1513000000000009  6.0280600000000000  5.8544200000000002
 11.2987000000000002 11.6335999999999995  4.9388199999999998
 10.7598000000000003 11.1363000000000003  0.1989440000000000
  6.6012899999999997  6.7984600000000004  3.3926200000000000
 13.5950000000000006  3.2913000000000001  2.5522999999999998
  9.9240899999999996 14.0977999999999994  2.5560700000000001
  8.4205299999999994  8.3118999999999996  6.7864500000000003
  8.5233600000000003  7.1445100000000004  4.6021799999999997
  6.8386399999999998  0.8405410000000000  3.0244100000000000
  9.2733500000000006 12.3716000000000008  3.8152200000000001
  9.2913099999999993  3.4274300000000002  4.1003600000000002
  6.9516400000000003  2.8957000000000002  4.1601499999999998
  9.5513100000000009  8.6917200000000001  3.2947899999999999
  4.5832199999999998  2.8075899999999998  0.3865580000000000
  1.8669199999999999  6.1259899999999998  4.6914300000000004
 13.7431999999999999  8.7025299999999994  0.3289080000000000
  7.3285700000000000  6.8291000000000004  1.1362600000000000
  9.1353299999999997  0.3449780000000000  6.3196199999999996
  9.8521400000000003  5.4003600000000000  5.2898100000000001
 11.7941000000000003  5.9826899999999998  1.1898200000000001
  8.2130299999999998 10.5853000000000002  2.7677499999999999
  5.5965499999999997  4.6184900000000004  3.3531599999999999
 13.5485000000000007  3.9553099999999999  5.0259499999999999
  8.4359800000000007  4.7095099999999999  0.2892340000000000
  9.4218700000000002  3.2210100000000002  1.8479300000000001
 12.3222000000000005  2.4039899999999998  6.2679900000000002
 10.4829000000000008  7.9303299999999997  1.2208500000000000
 10.7890999999999995 13.5168999999999997  0.4615970000000000
  6.4295999999999998  3.9256500000000001  6.2733600000000003
 10.5472999999999999  1.6916100000000001  5.1082099999999997
  7.7119999999999997 13.9210999999999991  4.6937699999999998
