 H Si 
 1.0000000000000000
    14.5342042383440404    0.0000000000000000    0.0000000000000000
     0.0000000000000000   14.5342042383440404    0.0000000000000000
     0.0000000000000000    0.0000000000000000   28.2564940000000036
 H   Si 
   9  88
Cartesian
  5.5012100000000004 11.7987000000000002 13.1562239999999999
  6.2604300000000004  6.4133199999999997 11.9122339999999998
  8.1785099999999993  7.1071400000000002 16.9012840000000004
  6.5037500000000001  0.5552049999999999 15.9015339999999998
 11.2677999999999994  1.1824300000000001 14.3860440000000001
  3.5192500000000000  2.6733400000000000 15.5254639999999995
  1.1467600000000000  4.5875199999999996 12.8472840000000001
  8.4089799999999997  6.9818499999999997 14.2980540000000005
  7.4333900000000002 10.8795000000000002 12.2130539999999996
  6.1289100000000003  3.6062599999999998 18.2560639999999985
 11.1626999999999992  8.9859100000000005 11.8794439999999994
 10.9784000000000006  9.3646100000000008 14.2872039999999991
  5.3662299999999998  1.6576599999999999 15.7908139999999992
  9.4987499999999994  9.6985200000000003 10.3615870000000001
  9.2426899999999996  5.8929999999999998 16.9546939999999999
  9.5547000000000004 11.9609000000000005 10.7613470000000007
  5.3581599999999998  8.1864899999999992 14.5018039999999999
  1.7337300000000000  9.0550099999999993 14.4218940000000000
  2.9875200000000000  6.8041700000000001 11.8321740000000002
 14.4670000000000005 13.0269999999999992 17.5633240000000015
  7.3455500000000002  7.4154400000000003 11.8754939999999998
 11.7630999999999997  3.4437500000000001 12.3527339999999999
  3.6677700000000000 10.5792000000000002 12.2554440000000007
  7.4595200000000004  8.1330299999999998 13.9760139999999993
  6.9577499999999999  9.3836899999999996 18.1529540000000011
  1.6947500000000000  3.1924100000000002 13.3224140000000002
  4.2736099999999997  6.2936199999999998 13.7183440000000001
  3.3407399999999998 10.6346000000000007 18.0258639999999986
  8.0211400000000008  3.8737499999999998 16.8805039999999984
  6.8263199999999999  3.2730299999999999 14.9783240000000006
  3.1168999999999998  5.1222399999999997 10.1110100000000003
  1.0497500000000000  1.0774200000000000 12.8297439999999998
 10.2695000000000007 11.2972000000000001 17.4421639999999982
  0.9676340000000000  7.8352599999999999 12.6526840000000007
  4.2814800000000002 11.6502999999999997 16.1221539999999983
  2.8661799999999999 12.6250999999999998 11.4011440000000004
 12.5298999999999996  0.0932307000000000 10.9197039999999994
  8.6951599999999996  9.9535699999999991 14.6464040000000004
  5.6925499999999998  4.4402400000000002 13.3658140000000003
  9.2395999999999994  1.9500900000000001 10.0390519999999999
 13.6531000000000002 11.1922999999999995 16.2938440000000000
  2.3275000000000001 12.9626999999999999 15.3861640000000008
  6.3688700000000003  3.7094600000000000 11.2908439999999999
  5.3168400000000000  1.2131900000000000 17.9840440000000008
 11.9800000000000004  7.3360200000000004 14.8609039999999997
  0.7463100000000000 11.0980000000000008 14.6397139999999997
  0.2618000000000000  0.4343560000000000 10.8359340000000000
  3.9011000000000000  9.9489599999999996 14.4406140000000001
 11.0213999999999999  6.2995099999999997 18.2564940000000000
 11.3897999999999993  2.0553800000000000 10.6722330000000003
  0.2715220000000000  8.4240999999999993 10.4336110000000009
  4.5871100000000000  0.9268850000000000 13.7991840000000003
  9.8059600000000007  4.4398999999999997 13.2216640000000005
  9.1137300000000003  5.9050099999999999 11.5874740000000003
 14.3787000000000003  5.9793099999999999 16.0760040000000011
 12.7287999999999997  7.2815700000000003 16.9372439999999997
 10.8862000000000005 12.9533000000000005 13.9791939999999997
  2.3195500000000000  8.4273199999999999 18.0030040000000007
  5.7980999999999998 13.4032000000000000 10.8245039999999992
  0.7464390000000000 12.6904000000000003 10.8221950000000007
  8.9168199999999995 11.9121000000000006 13.0563339999999997
 11.7803000000000004  3.6388400000000001 16.1450640000000014
  5.2435499999999999  5.6126399999999999 17.2936939999999986
  4.2045399999999997  3.0461499999999999 10.5039970000000000
 13.8947000000000003  0.5859500000000000 14.3620239999999999
  3.3033500000000000  5.7280699999999998 15.7925339999999998
  7.4462799999999998  8.6718899999999994 10.0000000000000000
 13.3331000000000000  9.4153900000000004 17.6847640000000013
  2.8206799999999999 14.0146999999999995 13.3334539999999997
 12.9350000000000005  5.3579299999999996 11.9326139999999992
 13.8461999999999996  4.0213400000000004 17.1743640000000006
  3.7053799999999999  8.8635400000000004 10.6999010000000006
  7.1533499999999997 14.2479999999999993 17.7886239999999987
 10.6372000000000000  5.5264100000000003 15.0697939999999999
 12.3782999999999994  2.2138300000000002 14.3761039999999998
 11.2889999999999997  6.8213100000000004 11.1460740000000005
  9.2948500000000003  0.4235060000000000 16.9155839999999991
  9.9184599999999996  2.5694699999999999 17.4035340000000005
 12.8607999999999993 13.4669000000000008 12.9605540000000001
  3.9194000000000000  2.9320200000000001 12.6999340000000007
  7.4279999999999999 13.4327000000000005 13.9269140000000000
 14.1280000000000001 11.5871999999999993 12.4692740000000004
  8.1038200000000007 10.9154999999999998 16.7326540000000001
  6.5596100000000002 12.6054999999999993 16.1298540000000017
  7.6856000000000000  1.8938200000000001 11.7424640000000000
  1.1144300000000000  2.4665200000000000 17.0541440000000009
  6.2732900000000003  0.2105980000000000 12.4807640000000006
 13.0442000000000000 10.1128999999999998 10.7234750000000005
  1.7021200000000001  7.4390700000000001 16.0887540000000016
  9.1848600000000005  0.3526460000000000 14.5433939999999993
  8.5948799999999999  2.4772799999999999 13.7283840000000001
 11.5160999999999998 11.3695000000000004 15.5229140000000001
  2.3010000000000002  3.6632600000000002 15.3619839999999996
 13.7517999999999994  6.4260599999999997 13.8181539999999998
  5.9260900000000003 11.2309000000000001 11.7763939999999998
  0.7794720000000001  0.2174280000000000 16.2020039999999987
  6.1575400000000000  7.6395799999999996 16.6551539999999996
