 H Si 
 1.0000000000000000
    14.5607414187346631    0.0000000000000000    0.0000000000000000
     0.0000000000000000   14.5607414187346631    0.0000000000000000
     0.0000000000000000    0.0000000000000000    9.0780800302093301
 H   Si 
  24  69
Cartesian
  3.3425300000000000  1.8777299999999999  0.0811668000000000
  4.2929800000000000 13.9631000000000007  1.2000500000000001
  1.5104000000000000  3.6106600000000002  5.4813499999999999
  5.2377599999999997  0.5890000000000000  3.1519599999999999
  6.3638199999999996  5.7071800000000001  5.6738200000000001
  5.6177099999999998  1.0771999999999999  3.3951600000000002
  2.7353700000000001  1.5655699999999999  7.0073699999999999
  7.1644399999999999 14.1577999999999999  6.1629399999999999
  4.4702299999999999 14.0002999999999993  7.5328799999999996
  3.5517900000000000  0.0974648000000000  5.1155299999999997
  3.3184999999999998  2.4458899999999999  0.6234870000000000
  4.4638900000000001  0.2597390000000000  7.6011100000000003
  2.7982600000000000  2.4956700000000001  4.0121500000000001
  5.0346599999999997  2.2856000000000001  5.5428699999999997
  7.2544100000000000  0.1708970000000000  0.6928029999999999
  2.2931900000000001 12.2754999999999992  2.5411299999999999
  4.9351500000000001  2.3062999999999998  6.3117700000000001
  2.2909700000000002  1.8352800000000000  6.4673900000000000
  4.2371600000000003  4.0742900000000004  1.8285000000000000
  2.9759600000000002  1.7630600000000001  4.0134400000000001
  1.8826000000000001  0.2449470000000000  8.6609800000000003
  3.7859699999999998 14.1501000000000001  5.6200599999999996
  3.6057100000000002 -0.2849930000000000  0.9976520000000000
  5.2462700000000000  4.0355200000000000  3.9219300000000001
 13.9909999999999997  5.5290299999999997  6.9666699999999997
  0.9364580000000000  9.5400700000000001  3.9187099999999999
  8.1096599999999999  3.3632000000000000  7.0775699999999997
 12.5422999999999991  1.4824400000000000  3.1925900000000000
 13.4271999999999991  9.9064200000000007  7.4434399999999998
 11.8222000000000005 10.4859000000000009  2.4314600000000000
  9.3484400000000001  2.7841399999999998  8.9480199999999996
  6.0433899999999996  6.4104299999999999  1.9408000000000001
 10.2171000000000003 13.8352000000000004  1.3485600000000000
 11.7501999999999995  2.6707299999999998  8.7178699999999996
  7.3345399999999996  5.6428000000000003  6.8807799999999997
  9.0481499999999997  3.9306600000000000  2.0031200000000000
  3.5267499999999998  8.6402699999999992  0.3994280000000000
  3.0537399999999999  9.6058800000000009  4.9564800000000000
  5.6635099999999996 10.4368999999999996  6.8813399999999998
  4.2020499999999998  7.8522400000000001  2.3654799999999998
  5.7702700000000000  8.9726700000000008  8.8888599999999993
  5.9572200000000004  6.5615600000000001  8.6770899999999997
  5.0723500000000001  9.6309199999999997  3.6662900000000000
 10.8109000000000002 11.6735000000000007  0.7013850000000000
  3.6581299999999999 11.4252000000000002  6.2335300000000000
  0.2561090000000000  5.2199799999999996  0.9882800000000000
 14.2242999999999995  7.5935300000000003  3.6365599999999998
 11.6678999999999995  8.8606599999999993  6.2967899999999997
  8.5062200000000008  0.3160250000000000 -0.0035148500000000
  5.7896999999999998  8.6073599999999999  5.5236599999999996
  9.2532300000000003 10.1971000000000007  8.7881999999999998
  9.9070999999999998  5.9705300000000001  2.3824800000000002
 11.4509000000000007  6.7738300000000002  0.6332440000000000
  8.4915099999999999 10.5420999999999996  4.9802600000000004
  7.7144199999999996  9.4277899999999999  1.2045600000000001
  0.2529590000000000  4.1202300000000003  5.1107699999999996
  0.4198920000000000  0.0575829000000000  5.7056800000000001
  0.8410780000000000 13.9352000000000000  8.0712399999999995
 12.5108999999999995 11.9489999999999998  8.1917200000000001
  3.6348300000000000  7.5504899999999999  5.7569400000000002
  8.0856899999999996  7.4109100000000003  2.5989599999999999
 10.6433999999999997  5.7072500000000002  4.7481600000000004
 10.4429999999999996 14.3978999999999999  6.0666300000000000
 13.7387999999999995  2.0937999999999999  5.3270499999999998
  8.0337200000000006  8.2549399999999995  4.8962100000000000
  1.0865300000000000  6.6431100000000001  8.3784200000000002
 10.9413999999999998 10.4835999999999991  4.7632899999999996
  7.9034100000000000 11.5972000000000008  7.1510999999999996
  8.3660099999999993 13.9323999999999995  7.0058100000000003
 13.5376999999999992 13.5356000000000005  0.4268530000000000
  1.8269899999999999 10.0855999999999995  0.2985520000000000
  3.4829699999999999  6.8490000000000002  7.9525100000000002
  0.0400218000000000  8.7432900000000000  9.0669799999999992
 13.7443000000000008 12.8643999999999998  4.7904700000000000
  0.8397850000000000  5.5919499999999998  3.2498399999999998
 12.6768999999999998  6.8679500000000004  5.4672900000000002
  1.8302600000000000 11.7754999999999992  7.5489199999999999
  6.8417399999999997 10.7727000000000004  2.9749699999999999
 11.7948000000000004 12.4977999999999998  6.0708200000000003
  1.1985900000000000 11.2072000000000003  2.2705199999999999
  9.2036400000000000  6.8296099999999997  6.2241400000000002
 10.5063999999999993  0.1613180000000000  3.4839000000000002
  3.1315599999999999  6.3990700000000000  3.8239899999999998
  0.1420740000000000 10.9330999999999996  5.8333199999999996
 10.2858999999999998  8.0575899999999994  8.0393100000000004
 10.1841000000000008  2.5161899999999999  3.3645800000000001
 12.9413000000000000  8.4005799999999997  1.7751999999999999
 12.1280999999999999  0.8324549999999999  0.9924070000000000
 12.7660999999999998  4.8969699999999996  8.9998100000000001
 11.5239999999999991  2.0851700000000002  6.4714099999999997
  4.6102900000000000  4.9404399999999997  2.9811200000000002
 13.7927999999999997 12.1877999999999993  2.3985300000000001
 10.0134000000000007  3.4760900000000001  5.3569199999999997
