 H Si 
 1.0000000000000000
    14.5330482480292638    0.0000000000000000    0.0000000000000000
     0.0000000000000000   14.5330482480292638    0.0000000000000000
     0.0000000000000000    0.0000000000000000   27.0395120000000020
 H   Si 
   4  78
Cartesian
 14.1258999999999997  2.9243399999999999 15.5128620000000002
 11.9404000000000003  6.6994300000000004 10.1176299000000007
 12.1196000000000002  2.4170400000000001 13.5574320000000004
  4.3742200000000002 12.7323000000000004 17.0115119999999997
  5.0235399999999997  9.8356700000000004 14.8356820000000003
  0.3591710000000000  5.7715199999999998 10.6379090000000005
  7.3300799999999997  2.2901300000000000 16.5371820000000014
 13.7182999999999993  7.0158800000000001 14.4809120000000000
  2.8971800000000001  3.8835000000000002 12.0114219999999996
 12.5170999999999992  1.1256900000000001 14.1440920000000006
  3.7728600000000001  2.0136099999999999 16.5388020000000004
  1.6803999999999999 13.2774000000000001 15.7350619999999992
  0.3293410000000000  1.4904500000000001 13.9329420000000006
  6.4605699999999997  4.4085999999999999 16.0137420000000006
  1.5557399999999999  1.0511699999999999 16.0017020000000016
  5.0113300000000001  9.2611699999999999 12.5951920000000008
 10.4359000000000002  7.2881200000000002 12.0864720000000005
 12.2015999999999991 10.0527999999999995 13.8790019999999998
  8.8359600000000000  7.9149200000000004 13.7389019999999995
  5.4163699999999997 12.1789000000000005 14.3397020000000008
  2.9476399999999998 14.4956999999999994 11.6368120000000008
 12.7959999999999994  2.9288500000000002 10.0576551999999992
  7.8034600000000003  7.8219300000000000 10.0628735999999996
 13.3804999999999996  8.3173499999999994 16.4479320000000016
  5.6972699999999996  0.9853150000000001 15.5811119999999992
 11.2012999999999998  7.7770999999999999 17.0395119999999984
  1.9187500000000000 11.9947999999999997 13.8568219999999993
  6.9994800000000001  3.7974000000000001 13.7439219999999995
 11.9968000000000004  6.0199299999999996 13.2565620000000006
  2.4835400000000001  4.9364900000000000 10.0625783999999996
  7.6942899999999996 12.0532000000000004 16.9774819999999984
  4.0174000000000003  4.4341999999999997 16.6504820000000002
 12.9136000000000006 12.2916000000000007 13.9137419999999992
  9.0131200000000007  2.6038600000000001 11.5103620000000006
  5.9248700000000003 12.3633000000000006 10.0700436999999994
 10.1313999999999993 10.7951999999999995 10.0000000000000000
  4.4348799999999997 10.9222000000000001 11.1713920000000009
  7.7176299999999998 12.1868999999999996 13.5395620000000001
  6.9007699999999996  7.7442200000000003 12.3682820000000007
 13.9634999999999998  4.2353300000000003 16.4067219999999985
  9.5517500000000002  6.6806400000000004 15.5912620000000004
  0.1534350000000000 12.5206000000000000 12.3626819999999995
 11.3427000000000007  1.4230400000000001 16.0958320000000015
 14.3254999999999999  8.9367300000000007 13.3010719999999996
  0.6809180000000000  5.2959300000000002 14.8085920000000009
  0.8100660000000000  3.5852400000000002 13.1610519999999998
  9.3185599999999997 13.9998000000000005 14.2537120000000002
  7.1864999999999997  9.8112300000000001 15.9808120000000002
  5.8121000000000000 13.2568000000000001 16.2106020000000015
 13.4771999999999998  4.4623900000000001 11.8452819999999992
  5.6724399999999999  1.6025300000000000 10.3222970000000007
  0.1424470000000000 10.3968000000000007 16.4399520000000017
  6.1182100000000004  5.5438599999999996 12.5431720000000002
 10.5754000000000001 10.6884999999999994 15.5369919999999997
  7.5782600000000002 13.1611999999999991 11.4731620000000003
  0.6448960000000000  0.2913270000000000 11.9089419999999997
 10.7209000000000003  1.8203199999999999 10.1211021999999993
 11.3734999999999999 13.9821000000000009 12.9256220000000006
  1.5353300000000001  9.7926900000000003 14.7436520000000009
  7.3328899999999999  0.9287720000000000 11.8207319999999996
  3.7836799999999999 12.5478000000000005 12.6726320000000001
 11.3392999999999997 14.1182999999999996 10.5014540000000007
  4.0738000000000003  1.9556600000000000 12.0642720000000008
  9.8222699999999996 12.7929999999999993 16.1324219999999983
 13.9761000000000006 12.6014999999999997 16.0475020000000015
 13.7250999999999994  9.2798099999999994 11.0027390000000000
 11.7265999999999995  3.7399399999999998 16.6684920000000005
  9.2182300000000001  1.5917300000000001 15.2306720000000002
  3.5093800000000002  7.7329900000000000 11.7991419999999998
  5.9907500000000002  5.1996900000000004 10.2034009999999995
  9.3222299999999994  3.3772300000000000 13.7752820000000007
  3.2005800000000000  8.4164100000000008 15.3200319999999994
  1.1208499999999999  7.5010300000000001 11.9251620000000003
  8.7203099999999996 10.1201000000000008 14.2549419999999998
 11.3585999999999991  9.4872399999999999 11.5887119999999992
  3.0027900000000001  5.8321699999999996 15.0701420000000006
 10.7262000000000004  4.8914799999999996 14.8634020000000007
  0.4574740000000000 11.1715999999999998 10.6132310000000007
  9.5367999999999995  6.4072100000000001 10.0445492000000005
  8.2769899999999996  4.4449800000000002 10.1007230999999997
  5.8634199999999996  1.8071500000000000 13.3622920000000001
  3.9466100000000002  5.6740599999999999 12.9824420000000007
