 H Si 
 1.0000000000000000
    14.5595896387012846    0.0000000000000000    0.0000000000000000
     0.0000000000000000   14.5595896387012846    0.0000000000000000
     0.0000000000000000    0.0000000000000000   24.9474154999999982
 H   Si 
  21  50
Cartesian
 11.7073000000000000  9.6388200000000008 12.8478554999999997
  0.4160890000000000  8.1730999999999998 13.3583754999999993
  9.8961100000000002 10.7385999999999999 12.3984354999999997
  0.0749144000000000  9.9192999999999998 14.9197255000000002
  0.3688540000000000 12.2279999999999998 14.8930354999999999
 13.8338999999999999 14.0030999999999999 13.8374354999999998
 14.0518000000000001  5.9040600000000003 14.0416655000000006
 11.4924999999999997  8.3012999999999995 10.5473794999999999
 13.0558999999999994 11.1869999999999994 14.3071854999999992
 14.0553000000000008 13.5140999999999991 13.3517655000000008
 13.4791000000000007  8.3582000000000001 11.7203754999999994
 11.2988999999999997 12.1592000000000002 13.7168054999999995
  2.3912800000000001 11.8763000000000005 14.6727454999999996
 12.2108000000000008  7.6749599999999996 14.9417255000000004
 12.1159999999999997 10.9681999999999995 11.3631654999999991
 11.7921999999999993  9.1202500000000004 12.2902954999999992
 14.0303000000000004 13.4215000000000000 11.5766454999999997
 11.8643000000000001  8.9094800000000003 10.2821055000000001
 12.6213999999999995  6.3694400000000000 13.0143555000000006
 11.9159000000000006 13.8171999999999997 14.6816955000000000
  0.7616500000000000  7.9311699999999998 13.9679754999999997
  9.3405299999999993 10.9831000000000003 10.1405384999999999
  6.8522499999999997 12.1141000000000005 12.9122555000000006
  2.0336500000000002 14.5168999999999997 11.6263655000000004
  2.3409599999999999  5.8172699999999997 12.8372355000000002
  5.6798999999999999  1.2639800000000001 13.3062155000000004
  2.9631799999999999  3.6747700000000001 10.0709435000000003
  5.8703599999999998  5.7570300000000003 12.3141154999999998
 11.3742000000000001  0.3676720000000000 13.7947655000000005
  9.9663799999999991 11.3691999999999993 13.7713754999999995
  7.4840700000000000  1.8331800000000000 14.7332654999999999
  3.6816399999999998 13.0936000000000003 11.9572254999999998
  8.2450600000000005 12.7103999999999999 14.5846254999999996
  6.0777700000000001  9.9357699999999998 13.2702454999999997
  8.1408400000000007  5.1858100000000000 12.2910454999999992
  6.2685500000000003  1.2438000000000000 11.1168254999999991
 10.6481999999999992  3.8243800000000001 14.2496355000000001
  0.0403510000000000 11.1395999999999997 14.1559355000000000
  3.4001199999999998  7.2481400000000002 14.4327655000000004
 11.3919999999999995  5.5851400000000000 12.7304355000000005
  8.7777300000000000  3.1513599999999999 13.1091855000000006
  0.5510600000000000  4.8862300000000003 13.9232955000000000
  5.3675600000000001  7.2339799999999999 10.5728594999999999
  0.7389260000000000 10.9125999999999994 11.9297354999999996
  1.4001500000000000  6.9424799999999998 11.0924554999999998
  6.7815200000000004  9.0437799999999999 11.1037055000000002
 13.3987999999999996  2.4853499999999999 11.2339555000000004
  9.0143699999999995  7.8013800000000000 14.9474155000000000
 11.5707000000000004 11.5556999999999999 10.1170235000000002
  5.0005300000000004 14.1346000000000007 10.0017917000000001
  3.9944500000000001  4.3089399999999998 12.1222554999999996
 12.4970999999999997  2.2018900000000001 14.4707454999999996
 11.7425999999999995  0.7830230000000000 11.5552154999999992
  5.5516199999999998  6.5552799999999998 14.4047854999999991
  6.8714300000000001  8.4231599999999993 14.8816655000000004
  5.2643399999999998 13.5663999999999998 13.6365955000000003
  9.6519700000000004  1.9995900000000000 11.3924754999999998
  1.6638400000000000  1.2621400000000000 13.5773154999999992
  9.5984099999999994  6.9852900000000000 12.7707254999999993
  7.8045200000000001 12.5395000000000003 10.8050855000000006
  8.2416999999999998  0.1073650000000000 11.4816354999999994
  3.7798300000000000  2.4213300000000002 13.6452855000000000
 12.0875000000000004  4.4951299999999996 11.0014155000000002
  3.8220299999999998  9.5307899999999997 13.7403154999999995
  0.5965750000000000 12.8534000000000006 10.6725604999999995
  8.3452000000000002  4.9319400000000000 10.0000000000000000
  3.0097200000000002 10.7446999999999999 11.9760554999999993
 14.5714000000000006  2.7177799999999999 13.2480054999999997
  9.0860299999999992  8.7960700000000003 11.0960955000000006
  0.0610351000000000  8.8437699999999992 10.9489955000000005
  8.9119899999999994  0.1267870000000000 13.7955155000000005
