 H Si 
 1.0000000000000000
    14.5480618022149013    0.0000000000000000    0.0000000000000000
     0.0000000000000000   14.5480618022149013    0.0000000000000000
     0.0000000000000000    0.0000000000000000   25.4552523999999991
 H   Si 
   5  59
Cartesian
 12.3398344099999999 13.9321959300000007 15.2494665900000008
 12.3259857700000008 11.8229671900000000 13.4311186399999993
 15.1571419200000008  5.7151014299999998  9.2494800099999992
  3.5645451000000001  0.2451086200000000 14.0632348500000006
  2.9017357100000001  0.4509002800000000 14.3708450200000009
 12.6475711700000009  0.2456804800000000 12.0780883200000009
  8.0362327300000000 12.7838983600000002 13.4927077900000008
  3.6500204200000002  2.4652215000000002 11.4444337300000001
  7.6077012899999996  4.9172759399999997 14.5629107100000006
  5.8185220400000004 13.6000201799999996 13.7229549300000002
  6.3433390500000000  1.1953680400000000 14.5986497699999997
 15.6473955100000008  5.4706732699999998 10.6250453399999998
  1.5895335799999999 12.9300014000000001 12.7758803099999998
  0.1370661900000000  4.4861916300000004 14.0026998700000007
  4.8713303300000002  6.2661477699999999 12.3966075399999998
  2.0355335299999999 11.9706636599999996 14.9021046199999994
  6.8405829400000000  1.8910742700000001 12.2165834199999992
  4.1482529499999998 11.8535108600000001 13.8018776800000005
  0.6126799600000000  1.5003999699999999 14.7110758700000002
  2.1171919899999998  3.2942823600000000 14.0791086700000001
  1.9999097299999999  7.8025652299999999 14.0224434700000007
  6.7983630599999998  9.9432279300000008 12.1819529299999996
  8.4690805699999991  6.7836380900000002 11.1539708100000006
  7.7597988600000001 12.7282236799999993 11.0950163199999992
 10.1555605900000003  9.7933936399999997 12.9361175900000003
 14.4123441600000000  3.8872860600000001 11.7286160000000006
  5.3908783800000002  1.2953315000000001 10.5288035000000004
  0.3381936300000000  0.2814815300000000 12.6833078100000005
  2.9257634399999999 10.3226542200000004 11.1165411299999999
 11.6910581699999998  6.1809729000000004 13.0324740899999991
 13.5347818499999999  9.8487950099999999 11.4214686699999994
 10.2417454499999998  3.3130554800000001 12.1974371000000001
  7.1302060999999997  6.5563407099999997 13.0073860200000002
  4.0873689300000002  4.1204287600000002 12.9934086299999993
  6.0660495299999999  3.3566557299999999 13.8815939600000000
  9.3981374899999999 14.1886065099999996 10.2775011500000009
  4.5513611100000002  9.7538705599999993 12.7309514200000002
 15.5001065699999998  9.8219142799999997 14.5801193300000005
 12.4656434300000001  2.5862641399999999 12.0113555299999994
 13.4906586999999991  8.5000312499999993 14.9001860599999993
 11.2320715100000008  8.1496696899999996 14.2371364499999995
  3.5182045300000002 12.5403905899999994 11.5222964300000008
  8.2038154500000005 10.5077238899999994 14.0367724099999993
 11.6545662700000001  4.4324514600000002 14.7808207899999999
 10.3200406900000008  5.4549933399999997 11.3026334899999998
  1.0837959300000000  7.4296569899999998 11.8206488299999997
  1.0298996300000001  9.2455911299999993 10.2705761199999994
 11.8001939300000007 11.3054813799999998 12.1334270300000000
  5.5530835800000000 13.6825750100000008 11.3536018999999992
  9.4708717199999999  0.1417083500000000 13.9548329800000008
  6.7366721500000004  8.5506823700000005 14.2518665500000008
  0.2715851100000000  6.5742376299999998 14.9712083699999994
 12.9586126400000001  2.5127143200000002 14.3530106199999992
  8.9046935499999993  9.0232769899999994 11.1332450699999992
 11.4142803799999992 13.2444006900000009 10.8926484299999995
  7.5828962200000003 10.6058992799999992 10.0836889700000008
  9.4712202899999998  3.5727199299999999 14.4767511899999999
  4.3193164700000004  7.8140292000000002 14.0016687100000006
 15.4655474700000006 10.7458311900000005 12.4540143299999997
 13.4290809600000003  7.7685264900000002 12.6318541500000006
  8.5256072300000003  1.5870240499999999 15.4597962399999993
 11.7828828399999992 14.8735913499999999 14.2536443100000003
  1.4706820000000000  2.1760079200000000 12.0295353800000004
  9.0774451000000003  1.3102324200000000 11.8831972100000005
