 H Si 
 1.0000000000000000
    14.5457540414500972    0.0000000000000000    0.0000000000000000
     0.0000000000000000   14.5457540414500972    0.0000000000000000
     0.0000000000000000    0.0000000000000000   25.6543640000000011
 H   Si 
   7  63
Cartesian
  4.8512875400000004  9.2683671800000003 15.0084925299999998
 10.0297707200000001  8.1470965500000005  8.9413294200000006
  5.1832390400000001 12.5415562699999992 10.4940327399999997
 11.7995170799999993  8.4103127200000003 13.5746550700000004
 12.0922976000000002 11.0541471100000006 14.8157531500000008
  2.0316952399999999  9.9208306200000003 15.7159483699999996
  3.8382702000000002  0.9143201200000000 15.2762759100000007
  2.1482720300000002  4.0299774499999996 11.0979326599999997
 14.0896741999999993  1.1600483699999999 10.7183545500000008
  5.8629418700000002 12.5814102000000005 13.5909398600000006
  7.8106325800000000  6.6166176600000002 12.4254395399999993
  9.4531939200000004  2.5144850999999999 11.5087486499999994
  5.5767044700000001 11.4843796900000008 11.4722187699999996
  9.7102124700000001  4.4588685000000003 14.9576873999999993
 14.7708306000000000 14.2138232400000000 14.2310195400000001
  0.3546997600000000  6.9189817400000004 12.4035330600000009
  5.7802724599999999  5.7335650999999999 11.8065506800000009
  1.0595990200000001  1.8541452400000000 14.4741837400000009
  5.6460654400000001  3.4780865900000002 11.3295717499999995
  5.4615842199999998  5.3215998799999999 14.1720908899999998
  9.3672028199999993  2.3612091899999998 13.9801113800000003
  1.8508903699999999 10.1043344200000007 11.1686919400000004
 13.3595935899999994 10.5495520599999999 12.0042784200000003
 10.3909780600000001  8.5049278000000008 10.3423976399999997
  7.8208268299999997  5.9061880400000000 14.6547199199999998
 11.8918780500000008  5.3644565399999999 14.4944154100000002
  4.6605412399999997  8.7333725599999994 13.6138758499999994
 12.6500112100000006  8.9569253599999996 10.3640115000000002
  7.1200560099999999  1.7696701399999999 14.4044100000000004
  5.3055165500000001  3.0194050200000002 13.6665794199999997
  3.3662267500000000  1.6117679899999999 14.0416701300000000
 10.9576999700000002  4.3577965000000001 11.3376191300000002
  9.6287020800000001 11.4396532700000009 12.8767037500000008
  8.2717929600000009  9.9584036600000001 14.1892683799999997
 14.3501681800000007  3.4958655099999998 13.4649322100000006
  4.2148693599999998  0.5074671900000000 10.3852539999999998
  1.7612160600000000 12.7313442600000002 15.3868856699999998
 12.2098608399999993  1.0085643799999999 12.0404329899999993
  1.0152116400000000  8.9901420400000003 15.1582129999999999
  0.8300418500000000 14.1899874900000000 11.9250926600000007
 11.9550501800000006  3.2639623300000000 13.2188186699999992
 10.3054445900000005 14.7728750000000009 14.6873121900000001
  0.5212516699999999  9.2040781799999998 12.9023687999999996
  3.6860204599999999 10.5614811000000000 12.4497632500000002
  9.1158376600000004 10.3248286199999999 10.9077035200000001
 14.3240520599999996  5.6593415499999997 14.3202976100000008
  6.9030232099999997  9.8280855999999996 10.6229845500000000
  3.1277112900000001 14.4829908700000001 12.3404565500000007
 11.8981789899999999 11.6748554099999993 13.4747032499999992
  7.0020945799999996 14.5163255699999993 12.9609246500000008
  0.4862777900000000 11.9685534699999998 11.2447836799999994
  3.4995525199999999  6.6624898400000001 14.0870480499999999
  1.5680335700000001  6.7418104999999997 15.5153460299999999
  9.2106656600000001 13.7707000799999992 12.8747931900000001
  9.0326587899999993  7.9224097799999997 15.1418238200000008
  2.5370206700000000  6.1477731799999997 11.9811520599999994
 10.0014751900000007  6.5545973000000002 11.6572737699999998
  3.4526264200000001 12.5598788300000006 13.6989032099999992
 10.8201929900000007  7.2885045599999998 13.7423421700000006
 12.4140394900000004 14.0092940699999993 13.8248873099999994
  7.4821271200000004  2.5857934899999999 10.2771394800000007
  6.4786315800000001  0.5935013700000000 10.7817924600000001
  7.3908057999999999 11.8515762599999999 15.2038606000000005
 14.5035327699999996  3.4073611800000001 11.1249026600000001
 13.4337134999999996  6.8396999100000002 10.6736846599999993
 10.2456919800000001  0.3619954200000000 10.9977988599999996
  3.7730473600000001  2.7570237999999998 10.2262862999999999
  4.2739310200000000  7.3057356400000000 10.9377725100000003
 12.8589216700000009  4.7158635799999997 10.0402403000000007
  6.8804575699999999  8.7661008000000002 12.6891871999999992
