 H Si 
 1.0000000000000000
    14.5388263617727471    0.0000000000000000    0.0000000000000000
     0.0000000000000000   14.5388263617727471    0.0000000000000000
     0.0000000000000000    0.0000000000000000   10.9396851867353426
 H   Si 
  10  93
Cartesian
  5.0857900000000003  4.9680999999999997  9.8996999999999993
  1.4219299999999999  6.3704099999999997  6.9693300000000002
  4.6459200000000003  1.2645999999999999  3.6367500000000001
 11.6189000000000000 10.8238000000000003  7.8611399999999998
  0.5991170000000000  3.7413799999999999  5.5564600000000004
  2.5848399999999998  4.3665099999999999  0.4607360000000000
  4.4214500000000001  0.4824410000000000  0.1834760000000000
 14.5607000000000006  1.4421400000000000  7.5646899999999997
  3.9179599999999999  0.3457490000000000  8.1458800000000000
  1.5525199999999999  0.2221640000000000  5.0704099999999999
 11.0675000000000008 10.1967999999999996  2.7816700000000001
  2.2652700000000001  7.3378899999999998  6.2418199999999997
 12.5302000000000007 13.4824999999999999  3.2887100000000000
  1.3917600000000001  7.7772899999999998  4.0541499999999999
  3.7788100000000000 10.4677000000000007  6.5160799999999997
  7.4854500000000002 13.7561999999999998  0.7319220000000000
 14.4332999999999991 12.8526000000000007  6.7744799999999996
 10.5386000000000006 13.1300000000000008  6.5068000000000001
 13.5684000000000005 11.4846000000000004 10.1714000000000002
  0.1915360000000000 10.7287999999999997  8.1284200000000002
  1.5082199999999999  9.1950299999999991  0.8845410000000000
  9.4433199999999999  8.9505599999999994  4.0213299999999998
  7.4853600000000000  9.9328599999999998  0.3625830000000000
  1.9203800000000000 10.1332000000000004  9.7575299999999991
  6.9292400000000001  2.4527700000000001 10.4156999999999993
  1.3596999999999999 11.7885000000000009  3.6356000000000002
  9.0064100000000007  9.9859899999999993  9.4465100000000000
  9.1024700000000003 12.9032999999999998  4.7337899999999999
 10.2515000000000001  6.6974799999999997  4.3379200000000004
  4.8268599999999999  7.3791000000000002  2.1202000000000001
  5.9835700000000003  4.4291499999999999  0.0582108000000000
 10.7850999999999999  2.8606799999999999  5.5638899999999998
  7.5280899999999997 11.3360000000000003  4.6687599999999998
 10.6134000000000004  6.5757500000000002  8.7194500000000001
  5.3992000000000004  8.9308899999999998  5.5158699999999996
  7.6261799999999997  1.8001900000000000  3.9446500000000002
  5.5701099999999997  8.3570399999999996  8.8592499999999994
 12.1275999999999993  4.3520599999999998  6.8047000000000004
  2.5149800000000000  7.2135800000000003  2.0995800000000000
  4.7086899999999998 13.6118000000000006  7.9209699999999996
  4.6676700000000002 12.2131000000000007  9.8129799999999996
  5.9622999999999999  5.8451100000000000  3.7632099999999999
  7.2718900000000000  4.2473500000000000  6.9513999999999996
  6.0746200000000004 11.8276000000000003  0.6132980000000000
  8.7742100000000001  2.7292299999999998  0.8358000000000000
  4.1955799999999996 10.1965000000000003  8.7407299999999992
 14.2236999999999991 12.2672000000000008  2.1418100000000000
  5.8195100000000002  0.9094320000000000  0.7033910000000000
  8.2867499999999996  5.5539800000000001  3.5912299999999999
 13.0197000000000003  4.2424799999999996  0.1954200000000000
 12.1103000000000005  6.7215999999999996  2.8992399999999998
 13.8712000000000000  4.5021699999999996  5.3159099999999997
  3.9757199999999999 12.6951999999999998  5.9226500000000000
 11.2293000000000003  6.5390699999999997  6.4522199999999996
  7.3767100000000001 14.4138999999999999  5.2530500000000000
 12.5707000000000004 12.4441000000000006  5.4156899999999997
 12.6110000000000007 10.1309000000000005  4.6092500000000003
  9.4675700000000003  1.3363000000000000  2.5224400000000000
  7.8232499999999998  8.5936500000000002  7.8896800000000002
  9.9389900000000004 12.1633999999999993  8.6983700000000006
 11.1563999999999997  0.8525490000000000  6.9401099999999998
 12.0699000000000005  8.5393799999999995  1.2964700000000000
  7.4828299999999999  2.1404999999999998  8.2039200000000001
  5.0543699999999996  4.2124699999999997  2.2808099999999998
  7.6351300000000002  9.2572200000000002  5.6463700000000001
 11.8489000000000004  4.5473699999999999  9.1614699999999996
 12.6621000000000006  8.2590400000000006  5.9882900000000001
  5.3775399999999998  9.3207500000000003  3.2164899999999998
 10.9463000000000008 12.4124999999999996  1.7254200000000000
  5.6953500000000004 12.9322999999999997  4.4756900000000002
  2.7434599999999998 11.1578999999999997  1.7771900000000000
  8.5488300000000006  3.6861100000000002  5.0313800000000004
 13.4250000000000007  0.4186460000000000  7.7050799999999997
  7.8009399999999998  6.0803500000000001 10.7057000000000002
  2.2652899999999998 12.2134999999999998 10.6396999999999995
  9.2551600000000001 13.6114999999999995  2.3777100000000000
  6.2903099999999998  7.7993899999999998  0.1397370000000000
 13.0526000000000000 14.5043000000000006  9.9947300000000006
  8.2384599999999999  6.2479899999999997  8.3185300000000009
 11.0344999999999995  8.5631299999999992  9.9418399999999991
  1.6102000000000001  9.5362700000000000  6.3875000000000002
  0.4957280000000000  9.8362300000000005  4.3989799999999999
  0.4201650000000000 13.4296000000000006  0.2292680000000000
  4.6674199999999999  7.1534199999999997  6.8369499999999999
  1.6794400000000000 13.3325999999999993  5.3602600000000002
 10.6133000000000006  2.7578399999999998 10.2797000000000001
  5.2581899999999999  5.0390400000000000  6.0080099999999996
 13.9337000000000000 10.0427000000000000  1.1105000000000000
  5.6035700000000004  1.8713100000000000  2.7667899999999999
  9.6340199999999996  1.2235600000000000  8.6962600000000005
  7.6594100000000003  9.9504500000000000  2.7800500000000001
 12.3239999999999998  3.2945199999999999  3.7255400000000001
 12.5818999999999992  9.5776400000000006  8.2031799999999997
  4.8980100000000002 11.6667000000000005  2.6328200000000002
 11.4611999999999998 12.6770999999999994 10.2741000000000007
 13.8331999999999997  6.7412200000000002  4.5734399999999997
  6.8458699999999997  0.0140634000000000  7.6241800000000000
 11.4367999999999999  4.7375200000000000  2.0378900000000000
 11.9852000000000007  1.2321200000000001  2.5928300000000002
  8.4467400000000001 13.9289000000000005  9.5301100000000005
 12.4451999999999998  1.8508199999999999  0.4264620000000000
  9.0891500000000001  5.0083099999999998  1.4688800000000000
  2.7965700000000000  4.8949699999999998  1.8386300000000000
