 H Si 
 1.0000000000000000
    14.5411363218109368    0.0000000000000000    0.0000000000000000
     0.0000000000000000   14.5411363218109368    0.0000000000000000
     0.0000000000000000    0.0000000000000000   27.8058021000000011
 H   Si 
   8  84
Cartesian
  8.7233400000000003  4.0532500000000002 11.1987821000000007
  0.3261460000000000  9.5390300000000003 12.8058420999999996
  0.6784680000000000  1.5348599999999999 17.8048320999999987
 12.2460000000000004  3.8695200000000001 14.7472320999999997
  1.4757400000000001  7.8944999999999999 13.5032520999999992
  1.4559599999999999  5.8185900000000004 14.5157620999999999
  6.6410900000000002  2.7248800000000002 13.1317921000000002
  8.3571299999999997 12.4331999999999994 16.5891620999999994
  9.8605800000000006  1.8994000000000000 14.3588120999999997
  9.6715499999999999  9.2433499999999995 15.4789021000000009
  8.7885600000000004 12.8345000000000002 10.1019451000000000
 11.3237000000000005 10.1206999999999994 10.2504871000000009
 12.5713000000000008  2.5771600000000001 11.6665621000000002
  0.1679240000000000  3.9368099999999999 10.0060041000000002
 14.2666000000000004 12.2205999999999992 10.7606991000000001
 14.2878000000000007  7.9211700000000000 10.7270081000000008
 10.4931000000000001  7.2307899999999998 15.1262921000000006
  8.5072600000000005  6.3837299999999999 12.0356120999999998
  8.9583600000000008 12.2143999999999995 13.6216921000000006
 13.0881000000000007 10.6966000000000001 16.2778321000000012
  3.0650400000000002 10.6312999999999995 10.0000000000000000
 10.8095999999999997 10.9467999999999996 16.5967421000000002
  3.8376500000000000  5.9898600000000002 16.5839721000000004
  1.9669600000000000 11.7692999999999994 11.6209620999999999
 12.1038999999999994  0.9580070000000001 17.1730121000000011
 12.7075999999999993 12.0515000000000008 12.4773721000000002
 12.2280999999999995  6.6822900000000001 16.4555921000000005
  9.4495799999999992 10.0006000000000004 13.2968221000000000
  1.1880200000000001  8.3813200000000005 16.0648321000000003
  0.1097570000000000  4.4156899999999997 16.6951920999999999
 11.5990000000000002 14.0236000000000001 12.6193121000000001
  7.2193100000000001  9.1713900000000006 10.3780140999999997
  8.7937700000000003  2.5985600000000000 10.9143820999999992
  4.3732300000000004  3.7439300000000002 17.3775620999999987
  1.5089200000000000  1.9302699999999999 12.4308320999999999
 10.6206999999999994  6.6136600000000003 10.6963370999999992
  2.6955499999999999  5.4023500000000002 12.2838621000000003
  0.1748170000000000 13.9144000000000005 14.9359620999999994
  8.9701000000000004  3.8798800000000000 15.3613520999999995
  1.7826299999999999  7.5879500000000002 11.9380421000000005
  5.0875899999999996 13.3877000000000006 16.7764020999999985
  3.4319799999999998 11.8599999999999994 15.9906120999999999
  7.1150200000000003  7.0543800000000001 15.7666120999999997
 14.2074999999999996 12.0703999999999994 17.8058021000000011
  1.6169199999999999  6.2240700000000002 16.0637520999999985
  8.6908499999999993  5.8422999999999998 14.3375720999999992
  9.9348700000000001  0.4301690000000000 16.2105621000000006
 12.2777999999999992  8.0080600000000004 13.6959120999999993
 13.5039999999999996  1.3067800000000001 15.3172621000000007
 12.6867000000000001  6.6618300000000001 11.7890420999999996
  6.2365399999999998  9.8712000000000000 14.0832020999999994
  7.4000399999999997  9.3201599999999996 15.9728320999999998
  4.6474700000000002  2.4737800000000001 15.4104420999999991
 12.4634000000000000  4.5142400000000000 16.0743821000000011
  6.9967100000000002 11.5703999999999994 11.0019121000000002
  2.3579900000000000  4.7648599999999997 10.1328250999999998
 11.9435000000000002  1.4833000000000001 13.5434721000000007
  1.9923000000000000  0.1400720000000000 13.6896220999999993
  3.1145399999999999 14.3460000000000001 17.6682620999999997
  3.7609200000000000  2.2016000000000000 11.6812421000000004
 13.4887999999999995  8.4447399999999995 15.6117521000000004
  2.5961200000000000  1.3299399999999999 15.6394120999999995
  3.7269500000000000  8.8222500000000004 11.3137921000000006
 13.6640999999999995  4.6111399999999998 12.0990421000000001
  1.0830200000000001  4.0244000000000000 13.2198521000000007
  6.2567100000000000 14.3739000000000008 13.2664320999999994
  4.9557700000000002  5.5446499999999999 12.9358521000000000
  5.0159300000000000  6.7542799999999996 14.7826421000000003
  1.3306600000000000 13.0276999999999994 16.6974121000000011
  6.7394600000000002 12.0527999999999995 13.2440121000000008
 13.8720999999999997 11.9062000000000001 14.3559120999999994
  4.2667400000000004  8.8721499999999995 13.7129420999999994
  6.3403200000000002  5.9414800000000003 11.1319120999999992
  8.4517799999999994  1.1124799999999999 12.7377321000000006
  5.2784800000000001  3.1285200000000000 13.2585520999999993
  4.6599700000000004 14.5055999999999994 11.4578120999999999
  0.9699770000000000 10.7103000000000002 13.4358620999999996
  9.6688600000000005 12.8031000000000006 15.7608520999999993
  0.7701860000000000  2.8377500000000002 15.2288920999999995
 11.6952999999999996  9.9388699999999996 12.4833920999999997
  8.1962299999999999  3.1592600000000002 17.3663521000000003
  6.0843600000000002  0.5848420000000000 15.6055121000000003
 13.5715000000000003 10.0145999999999997 10.1867421000000000
  7.9344900000000003  0.8802860000000000 17.2051321000000002
  5.3778100000000002  7.7198700000000002 10.1443060999999997
  3.4846800000000000 13.1288999999999998 12.7841421000000004
  2.6554899999999999  9.9534099999999999 14.8869421000000006
 11.9694000000000003 13.9670000000000005 10.4020340999999998
  7.7904700000000000  8.6252099999999992 12.6163320999999993
 14.4686000000000003  1.6848399999999999 10.6164880999999998
  9.4888200000000005 13.6998999999999995 12.0778621000000008
 10.9624000000000006  2.6881599999999999 10.0899231000000000
