 H Si 
 1.0000000000000000
    14.5676482755316030    0.0000000000000000    0.0000000000000000
     0.0000000000000000   14.5676482755316030    0.0000000000000000
     0.0000000000000000    0.0000000000000000   27.5565648999999944
 H   Si 
  36  71
Cartesian
 12.6206991500000001 17.5894040899999986 19.2167200200000003
  2.6752535399999999  9.6867495300000002 16.9127420300000004
 10.7479171099999995 12.6724390200000006 13.6290499500000006
  5.9165758899999998 -0.3287643400000000  9.5793786900000004
  6.3102123900000002  0.3059040200000000 13.9195088100000000
 11.0341661599999998 13.9659479900000001 11.5537250399999998
 13.1372146999999995 15.6225818600000004 11.5139237800000007
  1.9249254200000001  1.9502909100000001 11.2270936199999998
  7.8318549900000001  2.3564995600000000 10.8885349199999997
  5.0107162100000000 14.3186954400000008 11.7727914200000008
  8.0445689999999992 11.5545987599999993 14.0687891300000008
  1.5832874100000001 13.2926069600000005 10.1556348599999993
  9.4626207299999994 14.8350821600000007 12.1917267299999992
 10.0235246999999994  3.0838850400000002 13.9370062800000003
  5.2869779000000001 11.8436072699999997 14.3426136999999994
 14.4605852400000003  1.9828459599999999 13.2541536799999999
  4.5159908000000000 10.7959882599999997 10.0613371399999991
 14.2888947099999992  2.7943269800000001  9.6423006299999994
 11.6383253700000004 13.6526166500000006 11.2537505299999996
  7.4391794999999998 13.3583569900000008 11.9304065500000007
  2.3945108099999999 13.3896952700000007 12.2596835300000002
  8.2031689900000000  9.8877334500000007 10.8621487000000005
  8.9802021100000005 13.8710225900000008 15.1298432900000002
 10.8061785399999994  1.8718998600000001 10.6247138099999994
 12.7687872900000006 13.9670725600000001 13.7969370100000006
  1.3077223800000000 12.9093711399999993 14.7279278500000004
 10.9656105700000008  1.4367067300000000 18.6886022800000013
  0.0718854000000000 13.2425957800000003 12.1244547499999999
  6.7764472299999996 13.0216172300000004 11.9354932900000001
  2.6691644600000002  0.4043547400000000 14.1044281500000004
 13.8434477499999993 11.8214590200000007  8.8639333199999992
 10.6085844399999996 13.9282827000000005 16.9473489000000015
  8.7187406200000002 14.8250628899999999 12.1368812399999992
 10.4733790700000000  1.1497641700000001 15.3172268799999998
 12.7576990699999993 15.8722378800000001 15.4075332800000009
 13.3247997199999997 14.9729008300000004 11.1996328999999992
  1.8915181999999999  8.9634111399999998 15.6103255399999998
 13.9972681899999998  3.2826028900000002 13.8213313200000005
  6.3823475900000002  5.1762276399999996 16.5807094900000003
 12.0844827899999991 12.7369458000000009 14.2687188799999998
  4.7284128100000000 10.6342406500000006 14.9919274500000004
  6.9958458099999996  7.4740308700000000 16.8763069799999990
 10.8032724699999996  6.3529583699999996 17.6082277000000005
  8.8233516900000009  9.1787559800000000 12.0052280400000004
  2.7408981600000000  3.2190819199999998 15.6991113599999998
  9.5803838700000004 14.8182268300000004 16.0875274499999996
  6.8055273500000002  3.4066107500000000 11.1925326599999995
  5.9167317099999996  7.3887199800000003 13.3067211200000006
 13.7778662999999995  5.8296023000000003 10.5603011700000007
 12.9323553600000007  6.9891998800000001 16.9926388400000015
  3.3742377399999999  1.7034387799999999 13.9952166800000004
  1.2972786800000000 12.6971852700000003 11.4900675900000007
 11.6910230700000000  3.4796905499999999 13.3302109699999995
  3.1956313000000001 11.2923731099999998 16.7118469900000015
 11.1326898199999995  8.8259860299999993 11.7571226600000003
 11.8643676199999994  2.4552702900000001 18.0741119300000008
  8.2547864299999993 10.0865219899999996 14.1450067199999996
  1.8894536300000000 10.4697547600000007 12.0164682599999999
 11.3925610099999997  3.1782014400000000 11.0076210400000001
  3.0666446500000002  2.6688042400000000 11.8673879800000002
  1.5265788300000001  9.4014491099999997  9.3055285800000007
  5.4916790999999998  5.3419865199999998 14.4070758800000007
 11.9698606099999996 12.7139805300000006 16.5905383700000009
  3.5217620200000002  9.8071978099999999 10.5119695300000000
  3.1255534599999999  6.3907721000000004 10.8014765300000004
  2.4695371900000000  4.8473745900000003 12.3531516000000003
  4.8800498599999997  0.3305496200000000 10.4062644100000004
 11.3994442500000002  5.7689369900000003 13.4025487699999992
  7.9455296700000000  7.0256683400000002 12.2903015399999997
  1.6649734199999999  6.6629485800000001 15.5664975099999996
  4.7945903699999999  2.6098309600000000 10.3169163000000008
  9.9783054599999996  9.5022955600000003 15.6028405600000006
 14.0151858399999991 13.7558007599999996 17.1927570400000000
  6.5794569699999998  3.4461728400000000 13.5022607600000004
 14.4663207400000005 11.0125437500000007  9.9261325800000009
  8.3500733100000009  3.7160035800000002 16.6781059999999997
  1.0570206200000001  7.2817519500000003 10.1961209200000003
  3.1767173999999998  5.1907913199999998 14.5437505900000001
  5.6965032799999999  1.4054934600000000 16.8042403799999995
  7.8387682999999999  5.4463816999999999 10.5669669899999992
  9.2229752699999992  6.1734218199999997 14.0844874299999994
 13.0630741500000003  9.3526904500000008 17.1717358900000008
 10.0646061299999996  5.0263709299999997 10.5921123999999995
 14.8069195400000009  5.5231540399999997 17.0121829200000008
  8.6737689400000004  3.9166331099999998 14.3984324299999997
 13.5315605500000000  1.4812171800000000 16.6755643900000017
  0.1937919500000000  5.0610656599999997 12.5403443299999999
  0.4057198800000000  8.6264957199999994 11.9891417199999992
 11.6304412300000006  6.6127521299999996 11.2189211899999997
  1.0790723400000000 12.3479161299999998 16.1018213500000016
 10.5615216000000007  4.1730278700000003 17.1714409900000007
  4.0545297700000003  8.0937178900000006 12.0677640999999998
  3.1207062600000000  9.5383209299999994 13.7309439100000006
 -0.0115245300000000 10.3105898099999997 15.6700055400000000
  4.6916512399999997  3.4837813899999999 17.1289738199999988
  0.2287594700000000  7.0516061099999998 13.7467444800000003
 12.7212784800000005  7.1412819399999998 14.6971525799999991
 11.1499935299999997 10.6239167200000004 17.3135325100000017
  6.3846519300000004  8.9225806999999993 15.0519833999999992
  5.6410802699999998  1.5127230100000000 14.4826351899999999
 11.6384857000000004  9.0676750500000001 14.0560596100000001
  7.9414994200000004  1.5060378100000000 17.1696766399999987
 13.1396026900000003 10.0262990500000004 11.5536895099999999
  0.3433649900000000  3.3536782900000000 16.0269119000000018
  9.2348147800000007  7.3421854099999999 16.1907668899999990
 13.1857079400000003  3.7891515500000001  9.6488293299999999
 13.2047231699999994 10.7714348599999994 13.7809905900000000
