 H Si 
 1.0000000000000000
    14.5641956660020888    0.0000000000000000    0.0000000000000000
     0.0000000000000000   14.5641956660020888    0.0000000000000000
     0.0000000000000000    0.0000000000000000   11.6038514271695625
 H   Si 
  16 102
Cartesian
  7.6500500000000002  5.6844400000000004 10.6202000000000005
  5.3441900000000002  7.4699400000000002 11.0830000000000002
  6.9266500000000004  9.5294100000000004  5.8085699999999996
  6.9907500000000002  3.4829500000000002  0.1311700000000000
 10.6452000000000009  4.4929399999999999  8.6138700000000004
  9.4837000000000007  9.9243699999999997  9.6423299999999994
  4.6008100000000001  4.7951600000000001 10.1560000000000006
  7.9425499999999998  7.6757099999999996  8.5767100000000003
  7.1159400000000002  3.9211499999999999  9.0225100000000005
  6.2442200000000003  6.2415200000000004  9.2318599999999993
  9.6959800000000005  2.8335200000000000  0.8794540000000000
  7.7720900000000004  8.3360099999999999  8.7931000000000008
  7.3529000000000000  5.6470900000000004  9.9370700000000003
  7.0799500000000002  6.2703499999999996  7.1255100000000002
  9.6628000000000007  6.1370500000000003  6.6799400000000002
  9.1882800000000007 10.3198000000000008  6.6180099999999999
 13.5221999999999998 11.1199999999999992 10.3504000000000005
 10.4143000000000008 12.9686000000000003 10.1677000000000000
 12.4286999999999992  0.3233620000000000  8.9205400000000008
 11.2039000000000009  3.5444000000000000  5.4403400000000000
  1.0205500000000001  1.4342900000000001  9.0221800000000005
  0.7172300000000000  4.0456099999999999  0.5186090000000000
  2.7950499999999998  5.2603400000000002  2.9921000000000002
 12.4885000000000002 13.2157000000000000  4.7595000000000001
 14.2111999999999998  0.0201755000000000  5.4678500000000003
 13.2824000000000009 13.9665999999999997  1.5458400000000001
  4.3105700000000002 11.0263000000000009  4.8535000000000004
  1.9891900000000000 13.8947000000000003  9.2689100000000000
  9.3886599999999998  1.8691100000000000  5.6019300000000003
 11.6927000000000003  1.0200199999999999  2.2677299999999998
  2.6480399999999999  2.7777799999999999  8.3841099999999997
  0.1932980000000000  7.8400600000000003  3.9286200000000000
  0.9968540000000000  9.0394199999999998  5.7405299999999997
  4.6545699999999997  8.4693299999999994  7.6016300000000001
  8.6570599999999995  0.2825070000000000  7.3251299999999997
  1.5323700000000000  6.5357099999999999  8.6320999999999994
  4.3178599999999996  3.3684699999999999  9.9249799999999997
  4.7554900000000000  5.2063699999999997  4.4196000000000000
 11.6829000000000001  8.3733000000000004  5.6705899999999998
  8.7325300000000006 13.1585000000000001  3.8696799999999998
  2.3781699999999999 13.7205999999999992 11.4736999999999991
  3.1667000000000001  0.3724740000000000  4.8300200000000002
  4.8611100000000000  8.2818199999999997  0.7100379999999999
  7.6904700000000004  0.7406820000000000  9.4554399999999994
  1.5892599999999999 13.2670999999999992  5.7114099999999999
  9.7555899999999998 11.0431000000000008  3.4987900000000001
  4.1659100000000002 13.9480000000000004  8.2265999999999995
  5.7117199999999997  0.1687560000000000  4.2506500000000003
  7.1339100000000002 13.3661999999999992  5.7670300000000001
  8.0229300000000006 13.4311000000000007  1.5085599999999999
 11.8270000000000000 10.3399000000000001  2.3759700000000001
 12.5109999999999992  2.9471500000000002  3.5822500000000002
  2.1954300000000000 10.4237000000000002  8.8179900000000000
 12.7154000000000007 13.4620999999999995 10.7844999999999995
  4.4937199999999997  4.7365899999999996  6.6319800000000004
 11.8900000000000006  9.9690899999999996 11.5360999999999994
 12.1301000000000005  6.5994500000000000  2.1409500000000001
 12.1095000000000006  4.1817500000000001  9.1477100000000000
  3.3420399999999999  7.4976500000000001  2.3812799999999998
 10.5128000000000004  0.1171500000000000  4.2365300000000001
  9.1849200000000000  0.0788275000000000 11.2528000000000006
  7.6184399999999997 10.1315000000000008  2.5444100000000001
  6.4049800000000001  2.6785800000000002  8.9462600000000005
  2.2378999999999998  8.4835499999999993  7.6313800000000001
  0.8153040000000000  6.0864300000000000 10.8559000000000001
 13.7720000000000002  4.7679400000000003  2.4176799999999998
 10.5310000000000006  1.7773300000000001  0.4443320000000000
 12.0840999999999994  2.2680099999999999 10.3762000000000008
  1.2931800000000000  8.6648800000000001  2.1741700000000002
  2.2128899999999998  4.7279900000000001  7.1550300000000000
  5.5651999999999999 11.5375999999999994  2.6603599999999998
  4.6965100000000000 10.6466999999999992  8.6296099999999996
  5.4455000000000000  9.2252899999999993  5.5422599999999997
  7.7953599999999996  5.8464700000000001  2.4493999999999998
 10.5381999999999998 13.6525999999999996  7.9531700000000001
 12.5371000000000006  8.3438300000000005  3.5378400000000001
  2.2907000000000002 11.4617000000000004  0.7622040000000000
  4.1678800000000003  2.3582100000000001  0.2931520000000000
 13.8911999999999995  1.2900900000000000  7.4234400000000003
  7.7609599999999999 11.2943999999999996  0.5124880000000001
 13.0679999999999996  6.1357999999999997 10.0678999999999998
  0.9174840000000000 10.8924000000000003  2.5923200000000000
  1.0637200000000000 10.2072000000000003 10.8133999999999997
 13.3573000000000004 12.0106999999999999  2.8340600000000000
  0.6553490000000000  5.6855700000000002  3.9638300000000002
 10.6287000000000003  6.1032999999999999  5.3753700000000002
  5.7736099999999997  6.3156800000000004  7.7474900000000000
  4.9118100000000000 12.2723999999999993  6.7434000000000003
  0.3893370000000000  4.0405600000000002  5.7485400000000002
  0.1167590000000000  2.0344600000000002  4.2792100000000000
  1.8948799999999999 11.1152999999999995  4.6246099999999997
 12.6035000000000004  7.7485499999999998  0.1672140000000000
  1.8705000000000001  1.5437200000000000  3.0445799999999998
  6.1277799999999996  2.9285000000000001  1.3008599999999999
  4.4816099999999999 10.6172000000000004  0.8121240000000000
  0.7966820000000000  0.4445180000000000  1.0837300000000001
  4.0324700000000000  1.3974200000000001  6.9377599999999999
  1.0602600000000000 12.1796000000000006  7.8060799999999997
 13.3485999999999994 11.1104000000000003  8.0296900000000004
  4.4546200000000002 14.5045999999999999  0.1920390000000000
  5.7491399999999997  2.8599299999999999  6.6394299999999999
  9.8308900000000001 10.7631999999999994 10.8040000000000003
 12.9735999999999994  3.4152000000000000  7.1173400000000004
  2.4549900000000000  3.2983199999999999  1.7484200000000001
 13.6024999999999991  9.0834100000000007  7.0045799999999998
  5.8694600000000001 13.8026000000000000  2.0524800000000001
  5.0189599999999999  7.5138999999999996  4.0235000000000003
  6.6801800000000000  7.9173600000000004  2.3785300000000000
 13.8628999999999998  6.9976200000000004  8.1250999999999998
 10.0937999999999999  5.7820200000000002  3.0064099999999998
 11.5797000000000008 12.0568000000000008  6.6681400000000002
 10.3249999999999993 10.3059999999999992  5.6335300000000004
  5.8069100000000002 13.7469999999999999 10.0574999999999992
  5.7941799999999999 11.5576000000000008 10.6182999999999996
  7.0228599999999997  2.1855799999999999  4.8912899999999997
  6.5485899999999999  4.0149400000000002  3.2705600000000001
  0.3204360000000000  8.1011000000000006  0.2245450000000000
 14.3757000000000001  2.1716600000000001 11.1831999999999994
