 H Si 
 1.0000000000000000
    14.5284224467457541    0.0000000000000000    0.0000000000000000
     0.0000000000000000   14.5284224467457541    0.0000000000000000
     0.0000000000000000    0.0000000000000000    8.2025211336367967
 H   Si 
   5  65
Cartesian
  4.0837700000000003 12.9745000000000008  6.5391700000000004
  4.4217100000000000  9.8637300000000003  1.5005900000000001
  9.9263100000000009 13.7520000000000007  3.8017099999999999
  6.7697599999999998  8.5565599999999993  3.2863400000000000
  6.2768699999999997  0.0189397000000000  5.1137300000000003
 12.0610999999999997  6.5785700000000000  6.1688299999999998
 12.6219000000000001 13.5434000000000001  5.5494899999999996
  3.3441700000000001  6.9313200000000004  1.8900600000000001
  9.1483200000000000  2.6544599999999998  3.5029300000000001
 14.5007000000000001  0.1440990000000000  4.7508600000000003
  9.5195699999999999  1.7442700000000000  7.6805399999999997
  8.1093299999999999  2.5250900000000001  5.6727999999999996
  3.2561499999999999  1.4872600000000000  7.5158399999999999
  4.9332300000000000  4.2860100000000001  1.2287900000000000
 10.0538000000000007  9.3629899999999999  1.8949600000000000
 11.5992999999999995  5.7281599999999999  0.0759302000000000
  3.2989199999999999  6.3542899999999998  6.2566300000000004
  2.2173799999999999 14.2882999999999996  4.4536600000000002
 11.2774999999999999  8.7068800000000000  5.8422400000000003
 14.2698999999999998  4.3036300000000001  2.0099900000000002
 14.3510000000000009  6.3121700000000001  6.7104699999999999
 11.8872000000000000 13.1178000000000008  1.2545299999999999
  4.8369400000000002  4.8174200000000003  5.4087600000000000
  2.8651399999999998  1.9426500000000000  3.5922900000000002
  9.5461500000000008  5.0900400000000001  3.6217700000000002
 13.7222000000000008  0.9828770000000000  0.2286040000000000
  4.2451200000000000  1.9841599999999999  1.5038499999999999
  0.9172220000000000  2.4097400000000002  7.5254200000000004
  3.1143299999999998  5.4047099999999997  0.1366530000000000
  0.1506970000000000  8.4482800000000005  7.7290900000000002
  9.1659699999999997  8.0705299999999998  6.5122099999999996
  0.9086790000000000  4.6072100000000002  0.0467054000000000
  4.2499300000000000  2.5236700000000001  5.5458400000000001
 11.4801000000000002  1.8865400000000001  3.4482599999999999
  8.3622200000000007  6.0518299999999998  1.8302900000000000
  6.2547199999999998  1.4235199999999999  4.6810499999999999
  2.7884600000000002 13.6247000000000007  6.6959099999999996
  9.7994599999999998  7.2508400000000002  0.5159200000000000
  2.0172400000000001  9.9020600000000005  7.8384600000000004
 11.8012999999999995 10.7199000000000009  0.9423940000000000
  1.3941300000000001  5.7615299999999996  4.8653599999999999
  1.3234399999999999  3.6913600000000000  3.7792100000000000
  6.1396300000000004  0.9134050000000000  2.2616000000000001
 11.5954999999999995  0.1077160000000000  7.5509800000000000
  7.1302300000000001  4.6596700000000002  6.3003999999999998
  7.2187700000000001  4.2950600000000003  0.5340840000000000
  6.7761399999999998  7.0210200000000000  3.3563200000000002
  4.8605999999999998  5.6758600000000001  3.1717300000000002
  0.6980970000000000 13.3071999999999999  3.0438600000000000
 13.2300000000000004 10.0411999999999999  2.6013600000000001
  3.1204600000000000  9.2682800000000007  1.6784200000000000
 12.7664000000000009  6.0929099999999998  2.2106599999999998
 12.8142999999999994  9.9547299999999996  7.2542900000000001
 13.9377999999999993 11.5724000000000000  6.0728499999999999
  2.2810000000000001  9.4981700000000000  3.9555799999999999
 11.2479999999999993  8.8489000000000004  3.6081599999999998
  1.4703800000000000  7.3628499999999999  3.3331700000000000
 11.7890999999999995  5.3640999999999996  4.2224300000000001
 14.4515999999999991  2.5727199999999999  5.1029499999999999
  0.4069710000000000 10.9596000000000000  3.9298199999999999
 14.2398000000000007 13.3201999999999998  0.9677700000000000
 14.2402999999999995  8.0082000000000004  1.8196000000000001
  8.0349599999999999  2.2868700000000000  1.4878700000000000
 12.2088999999999999  3.2139600000000002  5.2929000000000004
 12.5761000000000003  2.5620400000000001  1.5396799999999999
 11.4054000000000002 13.9971999999999994  3.3899800000000000
 11.2929999999999993  3.4144000000000001  7.7359600000000004
  1.0302000000000000 12.1339000000000006  7.5894899999999996
  8.2675999999999998  6.4462799999999998  5.2037800000000001
  3.3365000000000000  8.9675100000000008  6.0389099999999996
