 H Si 
 1.0000000000000000
    14.5307357155388193    0.0000000000000000    0.0000000000000000
     0.0000000000000000   14.5307357155388193    0.0000000000000000
     0.0000000000000000    0.0000000000000000   26.6111952000000009
 H   Si 
   3  69
Cartesian
 12.1449516000000006 12.1918109300000008 15.3356194699999993
 12.5770199199999997 10.4910002999999996 13.1009855300000009
 13.0653845299999993 10.4798775600000003 17.3167897199999992
  0.3291445200000000  0.9889545100000000 11.5472552400000001
  3.1565395199999999  3.5352314900000001 12.7984217999999998
  9.7189508599999996 10.7230974400000001 12.8607755000000008
  9.7831349700000008  6.8497438300000004 13.4673784500000000
 12.0894738400000001  0.8284177700000001 15.2425130000000006
  0.9023704400000000 14.4469962400000007 13.9460939699999997
  6.7272599900000003  2.6724349500000000 11.3611136500000001
  9.2608121899999993 12.7037549599999995 14.0124894599999994
  7.6057102700000003 12.5446253999999993 10.9242012400000004
  6.1036659100000001 14.1610932300000005 14.3559003500000006
  4.6033965200000004  9.5696510000000004 16.1858521899999985
  3.8715026600000000 -0.3437829900000000 12.8416287100000002
  4.6664399400000001  4.9777704700000003 15.7972789000000002
 11.7952348800000006 10.9438544699999998 11.8937196099999998
 11.9179416499999995  4.2762030299999996 15.0062051699999994
  6.3257253100000002  5.6398925599999998 13.0109345199999993
  4.0878276900000001  6.5349377300000002 10.9643993399999999
  1.6476809200000000  6.9316818299999996 11.1825953100000000
  8.5033414500000006  6.4481802400000001 15.5921099499999993
 10.0204172699999994  9.0061899600000004 14.3333425900000009
 -0.0081483700000000 13.0790107899999999 12.3298879400000008
  8.0271067699999996 10.1102998199999998 11.4574101400000004
  4.7033404299999999 11.0144615600000009 11.7017997900000008
  6.1946025699999998  9.6588786800000008 12.8189681499999999
  2.7851900000000001 13.3034000700000004 14.7329124999999994
  8.8236660600000008 14.1360696400000005 12.1914580099999998
  0.6888213100000000  2.9100258999999999 15.0105469100000004
 14.4147973000000000  3.1102717599999998 12.6619765100000006
 14.3866607599999998  0.8881314000000000 15.7698821599999999
  7.3403478900000003  1.1906409800000000 13.1259924100000003
 12.2404867500000005  3.9518507999999999 12.5517577800000009
  0.8469142900000000  9.9042645300000007 15.0485672600000004
  1.8402314200000001  7.7178166499999996 14.9721914799999993
  8.2829497900000000  8.7446070599999999 15.8276074599999994
 13.5734222700000000  9.4422225999999991 16.4028336500000016
 14.0149375299999992  4.6022866000000002 16.0319194100000004
  6.5781223700000000 10.1738534999999999 15.1128845199999997
 14.4138881699999999  8.6749046599999993 11.6618906100000004
  4.1165031699999997  0.6845254100000000 15.0597800799999995
  8.7436658900000008  8.0226199400000002 10.4563187699999993
  2.9615019000000000 10.9543962799999992 15.2084216600000008
 10.7985559200000001  2.8328057499999999 11.0157437100000006
  6.9626081099999997  4.7320441700000000 15.0579028699999995
 11.0232723999999997  7.7678986700000001 10.5767991600000002
  7.3493270199999996 12.4100696300000006 15.3086187099999993
  8.2856642800000007  6.1282431400000004 11.8485309099999991
  0.6355346100000000 10.6715151699999993 12.7474352799999995
 11.7028758300000000  6.2531751800000004 12.2106668900000006
 10.8688314800000008  0.4711649900000000 11.5211690499999992
 12.2429042300000006 13.1974665200000008 12.2888591399999996
  5.0208432199999997  4.3005740599999998 11.6815201000000002
 11.3396819099999995  1.8606818500000000 13.3180058599999995
 10.4161449699999995  2.5163434499999999 15.4199570500000007
  1.3142655299999999  4.9686726600000002 12.4982536000000000
 12.0644211200000004  8.2404910600000001 15.1355007300000004
  2.4171066200000002  1.3503791700000001 12.3732924499999992
  4.1450405500000000  7.3547678200000002 15.2781417899999994
  8.7677971100000001  3.7835000900000000 11.8478929799999992
  5.1227553400000003  7.5895288699999996 13.0168727900000007
  3.1936716700000001  3.0783205499999999 15.0648386500000004
 10.8270582500000003  6.2347955099999997 15.5943634299999996
 11.4752238799999997 13.2444023699999995 14.5357274000000007
  2.9166382999999998 10.3980884000000007 12.9116633899999993
  0.3826078000000000  6.0205432300000004 14.4159414600000009
 12.5998118899999998  9.4005331400000003 10.3201101499999996
  2.7991044899999999  8.0564826099999998 12.8733877000000003
  8.4218291199999999  3.0195387700000000 14.1413970399999993
 13.3546609299999997  7.3975360400000003 13.3583223899999997
  5.7268553100000004 12.9794625900000007 12.2425976399999996
