 H Si 
 1.0000000000000000
    14.5871822212489128    0.0000000000000000    0.0000000000000000
     0.0000000000000000   14.5871822212489128    0.0000000000000000
     0.0000000000000000    0.0000000000000000   28.8467720999999990
 H   Si 
  31  95
Cartesian
  9.9969741299999999  9.6197470900000006 18.6371417199999989
  6.3408202400000002  9.6926462900000008  9.8347292599999996
  9.2826730400000006 11.2776658899999997 14.5563154499999996
 12.0447197500000005 10.0227956799999998 10.9172995200000003
  8.1219382099999997 13.5567383600000007 14.2183414900000002
 11.0017367499999992 12.9974967400000008 13.3460715800000003
  9.0891692000000006 11.4287051300000009 12.0542809900000005
 11.2137678300000001 11.8820576899999999 18.9154829599999985
 12.4017360599999993  9.4462597400000003 20.3472086599999997
 10.1647631500000006 13.1873928399999993 10.3745257199999994
  8.9798717400000001  9.7792405200000001 10.3910595099999998
  2.0988717200000000  2.6390126899999999 14.5424562000000002
  0.9126554700000000 11.7482229700000005 17.4304717400000015
 11.7340193700000004 10.5973408199999994 13.1922922400000004
  9.6029902099999997  0.3058106400000000 13.3128808599999999
  7.7594404900000002  0.4574617200000000 11.9560099900000001
 10.4900220900000001 14.8516293299999997  8.7255835600000005
 10.0068161599999996 11.3104969700000009 14.7005012399999995
 10.5315604799999996 13.7541752800000001 17.0572223100000002
  8.1396108399999996 13.0684858399999992 18.2610245499999984
  6.7814587000000000 12.3657766400000000 13.2989768200000000
 11.3482330999999999 12.3052269299999999 16.2284109600000015
 10.7696665899999999 12.4657716399999998 18.7996782300000014
  5.6698124900000000  9.7111867000000007  9.4875393900000002
  9.7195074199999993  0.2280721700000000 12.5737899599999992
 12.8291136699999999 12.6813832899999994 12.0561894400000007
 13.0900818700000006 12.9971142999999998 17.7387256300000011
  9.1997377500000006 11.8979829499999994 16.9867237499999995
  9.8478898000000008  0.7905403300000000 19.4568912699999998
  9.6285910300000008 11.2849508200000006 17.0648385900000008
  7.8156062700000000 11.5292321999999992  9.9756691100000001
  0.8179714100000000  0.2556799400000000 15.2636568500000003
  7.5599587799999997  8.5923912799999993 12.3718152400000001
  8.3070398399999998  3.2636082499999999 11.0376630999999996
 11.1480222799999993  6.0713679699999998 10.9608539399999998
 15.0928913700000003  4.9163593700000003 10.0059916599999994
  6.7507433399999996  9.3464900400000008 16.1888497200000003
 11.0932227099999992  3.3648641499999998 18.3437972500000015
  1.9908232699999999 15.0097768299999998 17.2917442500000007
  6.9842082200000002  5.5394270900000002 15.8202320699999994
  4.7079012100000002  6.9614641900000001 10.8790211899999996
  4.5904082400000004  2.6421600299999999  9.6608304000000000
 10.9563566500000000  3.1501818300000002 13.9225955599999995
  3.9278534500000002  3.9308367400000002 18.4655489300000006
  0.6698903500000000  6.3429505800000001 17.4064198700000006
  5.7993713199999997  0.5928081500000000  9.7218617399999996
  2.1807037800000000 12.6487989499999998 18.0166395900000005
  9.5373306099999997  1.6697990500000000 18.2900860200000004
  5.9085099999999997 11.6668976000000004 16.3442783799999987
 12.3047020899999993 13.6927818800000001 13.1047522799999996
 13.7390579200000005  1.9068483199999999 15.2864245899999993
  5.8389513300000004 14.9888933200000007 18.4341084600000009
 12.7480461700000003  6.4760206399999998 14.4455740899999991
  8.9898637899999994  5.4282377600000000 10.4030971700000006
  2.5095206299999999 13.2484219400000001 11.5922958499999993
  4.2239827099999996  6.1990557900000001 17.5723532599999999
  5.4466343100000003  2.4977736500000001 13.3256866800000005
  8.0520024100000001 14.5125798199999991 15.3465046899999997
  3.6583617799999999 11.2021409300000006 16.8158918499999999
  4.6841849199999999 13.4780741499999994 15.0043442700000007
 14.7776265000000002  9.9884033999999993 12.5368195799999995
 11.6426671299999995  1.0568420500000000 14.7594520899999999
  1.1210751000000001  1.9902397500000000 11.8369230999999999
 12.9904682499999993  3.4514711899999999 16.9315098400000004
  1.5828234100000000  5.7175381700000001 15.3831774699999997
  4.4486809500000000  0.4136867600000000 13.2388925900000007
  3.2383671199999999 10.6377644599999996  9.8312688099999992
  2.6806459299999998  3.6611497700000002 15.4560023700000002
 12.4248903599999991  9.6388128000000002 12.2968363200000006
  2.4648067800000000  3.4304208300000001 10.5227201000000008
  7.1014695500000000 13.4664669200000002 17.2715380100000004
  3.6197551200000002  9.0073670499999992 11.4503746900000003
  4.8598541099999997  6.5423004899999997 15.1552811999999992
  1.8597187100000001  2.9238149700000000 17.7395560799999998
  2.5826259100000000  9.0732856200000001 16.7326317700000011
  2.7132738299999999  7.6829765500000002 14.7660972899999994
  8.0638965799999998  0.9824426200000000 10.5825911599999998
  6.8025655199999999  3.3030615399999999 16.4490746799999989
 10.2328058300000002 14.6567263400000005 10.1667705000000002
  6.0344537699999998 11.7985869099999992 12.1488037999999996
  7.1021149100000001  6.9026205400000000 10.7780687200000003
  8.0798669800000003 10.7129423700000004 11.2220477800000005
  2.1175065100000001  0.3718595100000000 13.2120821100000008
 13.0343613299999994  9.8518372000000003 17.1369880300000013
 11.5907488300000008  4.7668998299999998 15.5457441000000003
 14.6513008399999993  4.2777750799999996 18.3117038399999998
 14.6368635999999999  5.3174118500000001 13.7081556500000001
  7.3761693299999997  2.0630746700000002 14.5861360900000001
  0.8560146700000000 11.3083498799999997 14.3289182999999998
  0.8753582700000000 13.3589328100000007  9.8736043799999997
 14.2218171699999996  3.0800394099999999 13.2928478999999999
 13.1168728699999999  8.7325909700000004 19.2422436099999992
  6.0120450200000004  3.4956606799999999 11.2822146900000000
  7.2944340199999997  2.2321267599999999 18.4230708000000014
  4.5716382099999997 10.2733012800000001 13.1815560999999999
  3.1920312300000000 11.6823789199999997 14.5198435799999999
  6.2292854999999996  7.5245621600000003 17.7746152200000012
  4.8400629700000000 13.6837762999999999 11.3067650999999998
  0.6626938900000000 10.3677745500000000 16.4652194899999991
  4.3088334100000001  4.5708702499999996 13.8199743500000007
  3.3018730900000000  5.2285709200000001 11.7838919499999992
  4.2332274500000002  0.4760626700000000 16.7449694499999993
 12.7479012300000001  4.5516263500000003 10.3321402100000004
 10.0844009799999998  0.4037313100000000 16.3777543799999989
  8.0878782499999993  5.5746362800000000 13.7854942600000001
  6.1339822100000001  5.5587372999999998 12.4406800099999995
 13.9871299199999992 13.0681536600000001 14.7302346300000000
  8.9543999599999999  8.4728257300000003 15.9063254999999995
 11.4602047599999999  7.5246558500000003 12.7840112300000008
  1.7609536600000000  8.2548771100000007 12.6291304899999997
  4.5597121100000004  2.7817823100000001 16.5501028300000002
 11.7747656799999998  7.1965052900000002 18.0351906000000000
 -0.2592220300000000  0.6726232200000000 10.4551715499999993
 10.3502643800000005  5.3987635200000001 17.5093046500000007
 15.8729107799999998 11.3281625899999998 10.8812853500000006
  8.3575626300000003  6.6535240699999996 17.2670222699999982
  5.9136313500000002  8.5942365299999999 14.1287667300000006
 12.1863258499999993  0.7664705600000000 11.3571507100000009
  1.1581726299999999  6.1588781700000004 11.8676208800000005
  2.4571934700000000  7.4885940499999997 18.4141208300000017
 13.4503029499999993  7.5460915699999997 16.4323143599999995
 12.2933848799999996  3.0143325100000000 12.0159295799999999
 12.7764340999999995 12.1733680000000000 16.5441650100000004
  8.7841030599999996  3.4068220800000000 13.3105865500000000
  9.2749810799999999  7.6531690799999996 13.6758264900000004
 10.6664720499999994  9.1545422599999995 17.3797367499999993
