 H Si 
 1.0000000000000000
    14.5434455481759581    0.0000000000000000    0.0000000000000000
     0.0000000000000000   14.5434455481759581    0.0000000000000000
     0.0000000000000000    0.0000000000000000    8.0881561954203356
 H   Si 
   9  64
Cartesian
  4.4873399999999997  3.9326300000000001  4.6232400000000000
  6.7429300000000003  3.2441800000000001  5.1885100000000000
 10.0105000000000004  5.5971299999999999  4.6978700000000000
 10.2096000000000000  5.9359900000000003  7.0987099999999996
  2.1110199999999999  8.1650700000000001  6.0935300000000003
  4.0188600000000001  8.6360600000000005  1.4812000000000001
  4.4074999999999998  9.1068200000000008  4.6005599999999998
  8.8242799999999999  4.2022399999999998  6.8292799999999998
  4.7726499999999996  4.0079200000000004  7.2498699999999996
 10.5703999999999994  8.4512800000000006  0.7745090000000000
 12.5777999999999999 12.9814000000000007  5.9941700000000004
  6.2094500000000004 12.3649000000000004  2.1507600000000000
 12.3309999999999995  9.9337199999999992  3.8135400000000002
  8.5307399999999998  9.7429799999999993  4.0695499999999996
  3.1269300000000002  4.1219099999999997  1.8209400000000000
  1.0509700000000000  9.1527200000000004  5.9518399999999998
  9.1077600000000007  2.7061999999999999  6.8634500000000003
 11.2644000000000002  2.6789000000000001  1.9930000000000001
  7.9561799999999998  1.1587000000000001  3.1053400000000000
  9.7683599999999995 11.8102000000000000  1.0674300000000001
  4.6764099999999997  1.1059399999999999  0.1211080000000000
  0.3406590000000000  4.9104099999999997  0.1563820000000000
  4.9209300000000002 12.1776000000000000  4.0908400000000000
 12.3734999999999999  9.9050999999999991  0.1010490000000000
  0.4388100000000000  5.1438499999999996  3.9562900000000001
 12.2347000000000001  1.8932300000000000 -0.0304959000000000
  9.2034400000000005  1.8535999999999999  0.9942860000000000
 11.9420999999999999 10.8186000000000000  5.9812799999999999
  6.0926299999999998 12.7676999999999996  6.1858399999999998
  8.3587299999999995 11.8126999999999995  2.9864600000000001
  0.9645850000000000  8.3059200000000004  1.9344500000000000
 11.6687999999999992 14.0813000000000006  7.7781700000000003
  2.0194200000000002 13.1189999999999998  1.5996999999999999
  3.0341300000000002 13.6074000000000002  3.6905899999999998
  2.3684200000000000 11.0928000000000004  6.2384599999999999
  5.5897199999999998  0.5824470000000000  6.0553999999999997
  3.7102800000000000  3.1926500000000000  7.9648199999999996
 12.4987999999999992 13.6229999999999993  1.9371000000000000
  0.0885718000000000  0.1437200000000000  1.9736499999999999
 13.4750999999999994  6.6188500000000001  7.2449100000000000
 14.2508999999999997  8.5829799999999992  3.9984600000000001
  1.4246000000000001  5.9327500000000004  1.8885799999999999
  3.5668099999999998 13.6819000000000006  7.7955500000000004
  4.2454099999999997  1.0030399999999999  4.0898700000000003
  5.0167999999999999 11.8956000000000000  0.1615830000000000
  9.3419100000000004 13.8546999999999993  8.0454500000000007
  9.0996799999999993  9.9681700000000006  7.9259399999999998
 14.3389000000000006  1.2840000000000000  4.1898600000000004
  2.8632300000000002 11.0314999999999994  0.5139280000000001
  9.1841600000000003 13.8289000000000009  3.9499900000000001
  3.5390600000000001 10.2499000000000002  4.2224000000000004
 10.4664000000000001  8.5312199999999994  3.2121400000000002
 13.2301000000000002  6.5326899999999997  4.7940500000000004
 11.2324999999999999  6.3327799999999996  8.0320599999999995
 14.3170000000000002  8.5979600000000005  7.9822400000000000
  1.2022500000000000  2.9887100000000002  4.7800099999999999
  1.4214199999999999  3.2269299999999999  7.0779399999999999
  7.3968600000000002  1.9625900000000001  5.3387099999999998
 11.2651000000000003  4.9780800000000003  1.8695299999999999
  2.9325800000000002  9.4455600000000004  2.0823499999999999
  6.0126900000000001  0.3616780000000000  2.1806100000000002
 12.1206999999999994  1.9119299999999999  4.0780000000000003
 11.9909999999999997 11.3592999999999993  1.8994100000000000
  9.4137699999999995 10.9313000000000002  5.9854900000000004
  8.4362300000000001 13.0530000000000008  6.0224900000000003
  0.0116020000000000  1.4866800000000000  7.9484500000000002
 11.0578000000000003  6.3306100000000001  3.8975900000000001
  0.0027944600000000 14.3309999999999995  6.1476899999999999
  2.1418400000000002 13.3315000000000001  5.8881800000000002
  3.4077199999999999  3.1578900000000001  3.9560599999999999
 13.5126000000000008  4.4418600000000001  2.2106699999999999
 11.3879000000000001  2.9524599999999999  6.1258999999999997
 11.4855999999999998 14.1593999999999998  3.9120900000000001
