 H Si 
 1.0000000000000000
    14.5492154080878304    0.0000000000000000    0.0000000000000000
     0.0000000000000000   14.5492154080878304    0.0000000000000000
     0.0000000000000000    0.0000000000000000    7.6232539087286026
 H   Si 
   7  55
Cartesian
 13.2393999999999998 13.5548999999999999  1.9110900000000000
  8.7606699999999993  3.7794099999999999  0.4448130000000000
 11.3178999999999998  5.2050500000000000  6.7255000000000003
  8.2372999999999994 11.0936000000000003  0.2295430000000000
  6.3771100000000001  6.0450400000000002  4.3146100000000001
  7.6530100000000001 10.5281000000000002  4.5576900000000000
  9.4080200000000005  3.6907899999999998  4.7470800000000004
 12.5938999999999997 13.7696000000000005  6.3352599999999999
  3.6619400000000000 10.3607999999999993  2.4099699999999999
  7.2445800000000000 12.2796000000000003  0.2995120000000000
 14.1455000000000002  8.1230499999999992  0.6565190000000000
 14.3513000000000002  1.6455000000000000  3.8110100000000000
  4.6368400000000003 11.4335000000000004  4.3136599999999996
  3.6135000000000002 13.3870000000000005  0.5465989999999999
  1.6581999999999999  5.0523199999999999  3.5183200000000001
  8.2408300000000008  2.4207299999999998  0.6528350000000001
 12.1557999999999993  3.0332800000000000  1.5094799999999999
  1.7508800000000000  4.9539200000000001  1.1070300000000000
 13.9110999999999994 13.9786999999999999  0.6462790000000000
  9.9629799999999999 14.1306999999999992  2.5950600000000001
  2.9249900000000002  8.1455900000000003  6.1519500000000003
  7.1421400000000004  2.4732200000000000  2.6321200000000000
  2.8746600000000000  2.2405300000000001  6.2921600000000000
 12.2295999999999996  4.1822600000000003  3.5276200000000002
 14.1001999999999992  8.0027699999999999  4.3629300000000004
  6.9593900000000000 11.8422000000000001  4.2707400000000000
  1.8159000000000001  2.7766500000000001  4.2197399999999998
 14.1609999999999996 14.0853000000000002  4.7754700000000003
 12.9800000000000004  2.8756499999999998  5.2069599999999996
  7.7061799999999998 13.2824000000000009  2.4263599999999999
  3.3096199999999998 13.3975000000000009  4.4419899999999997
  5.1217800000000002  3.8278200000000000  2.4268399999999999
  3.0276800000000001  8.1077300000000001  2.4337900000000001
  9.5630199999999999  0.4800290000000000  4.8574000000000002
 10.3575999999999997  1.3749400000000001  0.8779960000000000
 13.9669000000000008  5.8265200000000004  0.9388260000000000
 14.0174000000000003  5.7433100000000001  3.4693900000000002
  5.0087900000000003  5.1224699999999999  0.5383960000000000
  0.6248380000000000  8.8437199999999994  6.2804799999999998
  7.7521399999999998 13.4169000000000000  5.9028999999999998
 11.3116000000000003  1.1388199999999999  6.1951400000000003
  3.3795500000000001  6.7674500000000002  0.5388970000000000
  1.2241599999999999 12.4230999999999998  4.2481900000000001
  3.2728799999999998  6.7165900000000001  4.3050600000000001
 12.5623000000000005  4.4764900000000001  7.2633200000000002
  1.5572400000000000 11.1024999999999991  6.2420799999999996
  4.9032799999999996 11.3118999999999996  0.4471320000000000
  6.9470400000000003  2.4226500000000000  6.1933800000000003
  3.2030099999999999  2.2831800000000002  2.4799000000000002
 14.1250999999999998  1.6373899999999999  1.3535800000000000
  3.8480200000000000 10.3302999999999994  6.2109300000000003
  5.0567200000000003  5.1924099999999997  4.3721300000000003
  8.5373000000000001  2.6015400000000000  4.5249400000000000
  6.2310100000000004  0.3265920000000000  3.0597599999999998
  6.0354999999999999  0.6232480000000000  5.3682100000000004
  0.7889270000000000  8.6904800000000009  2.5535299999999999
  1.3008299999999999 12.5314999999999994  0.5355290000000000
  4.6818099999999996  3.7463000000000002  6.3641800000000002
  3.8816199999999998  0.1312710000000000  6.2251599999999998
  1.6924699999999999  2.7114799999999999  0.7589190000000000
  4.0570399999999998 14.5279000000000007  2.5533500000000000
  1.3252699999999999 11.0160000000000000  2.4306000000000001
