 H Si 
 1.0000000000000000
    14.5342042383440404    0.0000000000000000    0.0000000000000000
     0.0000000000000000   14.5342042383440404    0.0000000000000000
     0.0000000000000000    0.0000000000000000   27.3666969000000009
 H   Si 
   5  82
Cartesian
  5.9131200000000002 12.7017000000000007 10.4491609000000008
 13.9176000000000002  7.6592099999999999 13.2578768999999994
  1.2913699999999999  0.5556060000000000 13.4604169000000002
  8.9139400000000002 13.3218999999999994 10.0000000000000000
 12.5882000000000005 10.4559999999999995 13.6007669000000000
  8.8443000000000005  6.0156499999999999 14.0121368999999998
  9.5769199999999994 14.0295000000000005 17.2470168999999984
  2.0013800000000002  6.2039900000000001 13.8763169000000008
  6.3696900000000003  4.4198199999999996 13.2149269000000000
  7.2975899999999996 14.1803000000000008 16.5284368999999991
 12.8015000000000008  4.6131200000000003 11.8021569000000000
  7.0555800000000000 12.1936000000000000 15.4996668999999994
  9.4801500000000001  2.9942500000000001 11.5818369000000008
  1.3326499999999999 13.6058000000000003 13.0602069000000007
  3.9753300000000000  0.3233710000000000 11.7326969000000005
 11.4166000000000007  6.1876300000000004 11.2043969000000008
  0.1635200000000000  4.6643400000000002 10.6405128999999992
  7.3061900000000000 13.2113999999999994 13.2843468999999992
  3.4963000000000002 13.3831000000000007 13.4953269000000002
  0.5251510000000000 13.4678000000000004 16.3029468999999985
  1.1157300000000001  8.9664500000000000 11.4550169000000004
  5.5483500000000001  6.6863700000000001 16.0816869000000011
  9.8938699999999997 10.7026000000000003 11.4379068999999998
 14.1235999999999997 10.2852999999999994 10.2414299000000000
  1.5227800000000000  2.7073700000000001 10.5911719000000009
 12.5792000000000002  1.0095400000000001 11.7423468999999994
 13.5790000000000006 12.3234999999999992 11.0778969000000007
  2.0175299999999998  9.3745700000000003 16.6847068999999983
 11.0518999999999998  6.3264100000000001 14.8655168999999994
 11.7159999999999993  2.9201400000000000 10.6526198999999995
  3.9794000000000000  0.3172770000000000 15.2549969000000001
  9.5689299999999999  9.8664600000000000 13.7284468999999998
  9.2568000000000001  5.2458799999999997 11.8167968999999999
  0.3124850000000000 12.1678999999999995 14.3631969000000002
  3.4146500000000000  6.0080200000000001 15.6296768999999998
  6.9048100000000003  2.1863700000000001 13.5198969000000009
  4.4169299999999998  4.3450800000000003 11.8013268999999994
  0.2532150000000000  4.6236699999999997 14.7860469000000005
  2.7842400000000000  2.1916400000000000 14.6646468999999993
  6.3407600000000004  0.4902110000000000 12.0553469000000000
 10.9827999999999992  2.6253799999999998 14.8710868999999999
 11.3621999999999996  8.4971099999999993 14.3241069000000003
  4.7324599999999997  8.0412199999999991 10.9638369000000004
  0.7943070000000000  8.2469699999999992 13.5133469000000002
  1.2987100000000000  6.8430900000000001 10.5277919000000004
  0.0393347000000000  5.9971100000000002 16.7082368999999993
  0.9123599999999999 13.5486000000000004 10.7190589000000003
  5.2200300000000004 10.6342999999999996 15.0951769000000002
 12.3367000000000004  0.8234030000000000 14.1299068999999999
 12.0033999999999992  8.0858799999999995 12.1539169000000005
 12.9489000000000001  7.5224900000000003 17.0863468999999988
  2.1273900000000001  7.0179000000000000 17.0796369000000006
  7.1446100000000001  5.2093999999999996 15.2241569000000005
 10.6860999999999997 12.1897000000000002 16.6452269000000008
  7.0136200000000004  8.2132600000000000 11.3941268999999998
 10.8260000000000005  6.4893200000000002 17.1968068999999986
  6.3620799999999997 11.7829999999999995 11.5449968999999992
  3.6468699999999998  3.8796599999999999 16.3360169000000006
  2.9463599999999999  2.5670799999999998 12.3090869000000005
  7.7131800000000004 10.2576000000000001 10.5297398999999992
  7.8807799999999997  6.3709899999999999 10.2971459000000003
 11.9186999999999994 13.7019000000000002 10.3454098999999999
 12.5227000000000004  4.5042600000000004 14.2080368999999997
  3.3997700000000002  9.9098199999999999 11.2018468999999996
  0.6457079999999999  9.8619800000000009 15.0275969000000007
  7.7739900000000004  9.2870899999999992 16.9578269000000006
 11.3344000000000005 13.2417999999999996 14.4481368999999997
  6.3275300000000003  8.5387900000000005 15.1351668999999998
  9.0452999999999992 10.8419000000000008 15.6928669000000003
  9.9303000000000008 12.9998000000000005 11.0578669000000005
  5.6232600000000001  2.8566699999999998 17.1444168999999995
  7.8972800000000003  8.1727000000000007 13.5528268999999995
  7.5300000000000002  4.1839899999999997 17.3666969000000009
  6.1247600000000002  1.3259000000000001 15.5062169000000001
  3.2563499999999999  6.3167200000000001 11.8945869000000002
 13.6927000000000003  0.8825290000000000 16.0726368999999991
  3.9316900000000001 10.5421999999999993 16.9385568999999983
  9.4900099999999998 13.9368999999999996 13.1081769000000001
 14.3422000000000001  1.0770100000000000 10.2909158999999999
 12.8543000000000003  9.6814999999999998 15.8803368999999996
 10.5817999999999994  1.6073299999999999 16.9611069000000008
  0.8431020000000000  2.5807099999999998 15.6867669000000003
  9.2831200000000003  1.7165200000000000 13.4424869000000005
  2.6423800000000002 14.0084000000000000 17.0813169000000009
 12.7444000000000006 11.9032999999999998 13.2077469000000001
 11.7967999999999993  9.6255600000000001 10.3576578999999995
  4.4475600000000002 11.3622999999999994 12.9296068999999996
