 H Si 
 1.0000000000000000
    14.5860346133690904    0.0000000000000000    0.0000000000000000
     0.0000000000000000   14.5860346133690904    0.0000000000000000
     0.0000000000000000    0.0000000000000000   24.9135299000000003
 H   Si 
  37  41
Cartesian
  7.6543999999999999  2.3835099999999998 13.2129598999999995
  3.3945900000000000  5.2533500000000002 11.7899498999999999
 10.4189000000000007  0.2278710000000000 11.6657098999999995
  2.5716700000000001  7.2659599999999998 12.7905499000000002
 11.5641999999999996  3.7391299999999998 12.0038999000000004
  9.9479600000000001  2.8290600000000001 13.5128499000000009
  1.6667099999999999  4.7196499999999997 13.8433598999999994
  2.6503000000000001  2.2959100000000001 14.1576298999999999
  8.9045100000000001  1.0672699999999999 13.0750598999999994
 11.2704000000000004  8.3882100000000008 13.3598298999999994
 10.8948000000000000 14.3125999999999998 14.0729398999999997
 12.5058000000000007  3.4597199999999999 14.7276299000000002
 12.2204999999999995  1.8178200000000000 13.0251999000000005
  9.5567700000000002  2.1106900000000000 11.0857899000000000
  2.8411100000000000  3.6298100000000000 12.4006599000000008
  5.6085200000000004  6.1516099999999998 14.8593899000000000
  3.6905999999999999  5.4245299999999999 11.1817598999999994
  6.0670400000000004  2.2744900000000001 12.3535398999999995
  9.3137600000000003  0.7477330000000000 13.6267999000000000
  7.3218500000000004  4.6311900000000001 12.4039698999999999
  6.8103199999999999  6.8658700000000001 12.8854599000000007
  4.8408899999999999  2.7873299999999999 13.5713098999999993
  3.2559600000000000  6.4533600000000000 14.3059198999999992
 10.2395999999999994  0.9050490000000000 11.9114498999999991
 12.3048000000000002  2.9258999999999999 14.2361798999999998
  7.2922399999999996  1.0595000000000001 11.9293799000000007
  0.6724490000000000  2.6373099999999998 13.2708998999999999
 13.4502000000000006  4.6531599999999997 13.0113898999999993
  0.8015280000000000  4.5978399999999997 11.8022199000000008
  5.2497600000000002  4.9078600000000003 12.9000199000000002
  7.6121600000000003  2.6643300000000001 10.4710468999999993
  5.9199799999999998  5.8841000000000001 10.9208479000000001
  5.6404399999999999  4.0928000000000004 10.5916148999999997
 13.6967999999999996  3.9203299999999999 13.1421299000000005
  6.9528900000000000  4.2324200000000003 14.6367399000000002
 14.0380000000000003  1.7605599999999999 14.6573098999999996
  3.6063299999999998  3.0694599999999999 10.0000000000000000
  8.5437700000000003  8.9641999999999999 14.9135299000000003
  7.3752199999999997 10.9575999999999993 11.9333199000000008
 11.5198999999999998  9.2285799999999991 10.4366538999999996
  2.2359900000000001  5.6372400000000003 14.9000898999999993
 10.9052000000000007  5.3981100000000000 14.6604199000000008
  3.4902099999999998  2.5520100000000001 13.1041599000000009
  9.0817399999999999  7.2645000000000000 11.5749499000000000
 10.4443999999999999  4.0192300000000003 12.9525798999999999
  4.0441399999999996  8.3452900000000003 10.2758009000000001
  3.7264900000000001  0.4715310000000000 11.9176798999999995
 12.8439999999999994 13.4652999999999992 11.7994898999999993
 11.3368000000000002  7.0159200000000004 11.0417599000000006
  7.2812500000000000 14.1837999999999997 11.7500798999999994
  0.4700080000000000  1.5722000000000000 12.2047599000000009
 14.2372999999999994  9.6340000000000003 12.5737599000000007
  7.2782400000000003  2.7437600000000000 14.5802098999999998
  4.9509800000000004 11.3506000000000000 12.0170098999999997
 10.7574000000000005 12.5088000000000008 11.5638099000000008
  6.2177600000000002  2.7276400000000001 10.9410088999999999
  0.5430360000000000  3.1890900000000002 10.6386689000000008
  5.2821899999999999 13.5949000000000009 12.6497399000000001
  3.8326799999999999  9.9079899999999999 13.4529698999999994
 14.1401000000000003  7.5160499999999999 13.2314599000000008
  2.0297999999999998  7.3207700000000004 10.1718249000000007
  8.7686100000000007 12.6594999999999995 12.7680799000000000
 13.7174999999999994 10.1023999999999994 10.4016769000000000
 11.9332999999999991  7.0369200000000003 13.3143699000000009
 13.5131999999999994 12.9345999999999997 13.8863999000000007
  6.0410100000000000 13.7193000000000005 14.7426399000000004
  4.0271999999999997  7.7813100000000004 12.5245298999999992
  8.7304700000000004  9.2006800000000002 12.8348098999999998
 10.7285000000000004 10.4149999999999991 12.4932798999999992
 12.6212999999999997 10.7873999999999999 13.7750798999999997
  8.6380700000000008  4.9920600000000004 11.7847398999999999
 12.7933000000000003  1.1999299999999999 11.6719898999999998
  1.7277100000000001 14.0239999999999991 11.7997299000000009
  1.3210700000000000 12.9107000000000003 13.7005698999999996
 13.3425999999999991  5.8934199999999999 10.1680889000000008
  0.5809230000000000  6.1663399999999999 11.5133598999999993
  5.5442000000000000  6.2913399999999999 13.3654998999999997
  1.5886800000000001 10.5779999999999994 13.5878098999999999
