H  Si
 1.0000000000000000
    10.8599999999999994    0.0000000000000000    0.0000000000000000
     0.0000000000000000   10.8599999999999994    0.0000000000000000
     0.0000000000000000    0.0000000000000000   40.3624999999999972
 H   Si 
  32 128
Cartesian
  1.0758290395191450  9.7841709604808536 10.0000000000000000
 10.1544590610266674  0.7055409389733323  8.8817069160705469
  3.8491713734885371  1.5808286265114628 10.0000000000000000
  1.9568067834348057  3.4731932165651940  8.7330813380457641
  9.7548817224369238  6.5351182775630763 10.0000000000000000
  0.7106522494365582  4.7193477505634416  8.8429395361419445
  3.8240468269566561  7.0359531730433433 10.0000000000000000
  1.9981466988495353  8.8618533011504645  8.8286941008702371
  6.5778490264640146  9.7121509735359854 10.0000000000000000
  4.7336380184543057  0.6963619815456943  8.8223669648857790
  7.0473776580740362  3.8126223419259633 10.0000000000000000
  8.8618139004712120  1.9981860995287883  8.8408236432260843
  6.5457861856859996  4.3142138143139999 10.0000000000000000
  4.6626909724978498  6.1973090275021496  8.7386330562960470
  9.2021333363105366  7.0878666636894616 10.0000000000000000
  7.3910001326368873  8.8989998673631110  8.8256671891517211
  0.1986959373906718  5.2313040626093281 30.3625000000000007
  2.0283099357282866  3.4016900642717132 31.5077482928333552
  5.1286300879661848  0.3013699120338154 30.3625000000000007
  3.3022445008001551  2.1277554991998446 31.5610119825066207
  0.2451420370691824 10.6148579629308166 30.3625000000000007
  2.0576016516588336  8.8023983483411659 31.5098497562927733
  5.1579591851933779  5.7020408148066215 30.3625000000000007
  3.4320769202169195  7.4279230797830795 31.3866666509913443
  7.9836262896077121  2.8763737103922873 30.3625000000000007
  6.1204392344760290  4.7395607655239704 31.5380269516155671
 10.5799142675103965  0.2800857324896031 30.3625000000000007
  8.7475640358943885  2.1124359641056119 31.5608481087058621
  7.8917096446070047  8.3982903553929944 30.3625000000000007
  6.1054919971952453 10.1845080028047548 31.4720098554639733
  8.4099755451999521  7.8800244548000471 30.3625000000000007
 10.2326041873412130  6.0573958126587870 31.5376847944341669
  0.0000000000000000  0.0000000000000000 10.0000000000000000
  1.3574999999999999  1.3574999999999999 11.3574999999999999
  2.7149999999999999  2.7149999999999999 10.0000000000000000
  4.0724999999999998  4.0724999999999998 11.3574999999999999
  0.0000000000000000  2.7149999999999999 12.7149999999999999
  1.3574999999999999  4.0724999999999998 14.0724999999999998
  2.7149999999999999  0.0000000000000000 12.7149999999999999
  4.0724999999999998  1.3574999999999999 14.0724999999999998
  0.0000000000000000  5.4299999999999997 10.0000000000000000
  1.3574999999999999  6.7874999999999996 11.3574999999999999
  2.7149999999999999  8.1449999999999996 10.0000000000000000
  4.0724999999999998  9.5024999999999995 11.3574999999999999
  0.0000000000000000  8.1449999999999996 12.7149999999999999
  1.3574999999999999  9.5024999999999995 14.0724999999999998
  2.7149999999999999  5.4299999999999997 12.7149999999999999
  4.0724999999999998  6.7874999999999996 14.0724999999999998
  5.4299999999999997  0.0000000000000000 10.0000000000000000
  6.7874999999999996  1.3574999999999999 11.3574999999999999
  8.1449999999999996  2.7149999999999999 10.0000000000000000
  9.5024999999999995  4.0724999999999998 11.3574999999999999
  5.4299999999999997  2.7149999999999999 12.7149999999999999
  6.7874999999999996  4.0724999999999998 14.0724999999999998
  8.1449999999999996  0.0000000000000000 12.7149999999999999
  9.5024999999999995  1.3574999999999999 14.0724999999999998
  5.4299999999999997  5.4299999999999997 10.0000000000000000
  6.7874999999999996  6.7874999999999996 11.3574999999999999
  8.1449999999999996  8.1449999999999996 10.0000000000000000
  9.5024999999999995  9.5024999999999995 11.3574999999999999
  5.4299999999999997  8.1449999999999996 12.7149999999999999
  6.7874999999999996  9.5024999999999995 14.0724999999999998
  8.1449999999999996  5.4299999999999997 12.7149999999999999
  9.5024999999999995  6.7874999999999996 14.0724999999999998
  0.0000000000000000  0.0000000000000000 15.4299999999999997
  1.3574999999999999  1.3574999999999999 16.7875000000000014
  2.7149999999999999  2.7149999999999999 15.4299999999999997
  4.0724999999999998  4.0724999999999998 16.7875000000000014
  0.0000000000000000  2.7149999999999999 18.1449999999999996
  1.3574999999999999  4.0724999999999998 19.5025000000000013
  2.7149999999999999  0.0000000000000000 18.1449999999999996
  4.0724999999999998  1.3574999999999999 19.5025000000000013
  0.0000000000000000  5.4299999999999997 15.4299999999999997
  1.3574999999999999  6.7874999999999996 16.7875000000000014
  2.7149999999999999  8.1449999999999996 15.4299999999999997
  4.0724999999999998  9.5024999999999995 16.7875000000000014
  0.0000000000000000  8.1449999999999996 18.1449999999999996
  1.3574999999999999  9.5024999999999995 19.5025000000000013
  2.7149999999999999  5.4299999999999997 18.1449999999999996
  4.0724999999999998  6.7874999999999996 19.5025000000000013
  5.4299999999999997  0.0000000000000000 15.4299999999999997
  6.7874999999999996  1.3574999999999999 16.7875000000000014
  8.1449999999999996  2.7149999999999999 15.4299999999999997
  9.5024999999999995  4.0724999999999998 16.7875000000000014
  5.4299999999999997  2.7149999999999999 18.1449999999999996
  6.7874999999999996  4.0724999999999998 19.5025000000000013
  8.1449999999999996  0.0000000000000000 18.1449999999999996
  9.5024999999999995  1.3574999999999999 19.5025000000000013
  5.4299999999999997  5.4299999999999997 15.4299999999999997
  6.7874999999999996  6.7874999999999996 16.7875000000000014
  8.1449999999999996  8.1449999999999996 15.4299999999999997
  9.5024999999999995  9.5024999999999995 16.7875000000000014
  5.4299999999999997  8.1449999999999996 18.1449999999999996
  6.7874999999999996  9.5024999999999995 19.5025000000000013
  8.1449999999999996  5.4299999999999997 18.1449999999999996
  9.5024999999999995  6.7874999999999996 19.5025000000000013
  0.0000000000000000  0.0000000000000000 20.8599999999999994
  1.3574999999999999  1.3574999999999999 22.2175000000000011
  2.7149999999999999  2.7149999999999999 20.8599999999999994
  4.0724999999999998  4.0724999999999998 22.2175000000000011
  0.0000000000000000  2.7149999999999999 23.5749999999999993
  1.3574999999999999  4.0724999999999998 24.9325000000000010
  2.7149999999999999  0.0000000000000000 23.5749999999999993
  4.0724999999999998  1.3574999999999999 24.9325000000000010
  0.0000000000000000  5.4299999999999997 20.8599999999999994
  1.3574999999999999  6.7874999999999996 22.2175000000000011
  2.7149999999999999  8.1449999999999996 20.8599999999999994
  4.0724999999999998  9.5024999999999995 22.2175000000000011
  0.0000000000000000  8.1449999999999996 23.5749999999999993
  1.3574999999999999  9.5024999999999995 24.9325000000000010
  2.7149999999999999  5.4299999999999997 23.5749999999999993
  4.0724999999999998  6.7874999999999996 24.9325000000000010
  5.4299999999999997  0.0000000000000000 20.8599999999999994
  6.7874999999999996  1.3574999999999999 22.2175000000000011
  8.1449999999999996  2.7149999999999999 20.8599999999999994
  9.5024999999999995  4.0724999999999998 22.2175000000000011
  5.4299999999999997  2.7149999999999999 23.5749999999999993
  6.7874999999999996  4.0724999999999998 24.9325000000000010
  8.1449999999999996  0.0000000000000000 23.5749999999999993
  9.5024999999999995  1.3574999999999999 24.9325000000000010
  5.4299999999999997  5.4299999999999997 20.8599999999999994
  6.7874999999999996  6.7874999999999996 22.2175000000000011
  8.1449999999999996  8.1449999999999996 20.8599999999999994
  9.5024999999999995  9.5024999999999995 22.2175000000000011
  5.4299999999999997  8.1449999999999996 23.5749999999999993
  6.7874999999999996  9.5024999999999995 24.9325000000000010
  8.1449999999999996  5.4299999999999997 23.5749999999999993
  9.5024999999999995  6.7874999999999996 24.9325000000000010
  0.0000000000000000  0.0000000000000000 26.2899999999999991
  1.3574999999999999  1.3574999999999999 27.6475000000000009
  2.7149999999999999  2.7149999999999999 26.2899999999999991
  4.0724999999999998  4.0724999999999998 27.6475000000000009
  0.0000000000000000  2.7149999999999999 29.0049999999999990
  1.3574999999999999  4.0724999999999998 30.3625000000000007
  2.7149999999999999  0.0000000000000000 29.0049999999999990
  4.0724999999999998  1.3574999999999999 30.3625000000000007
  0.0000000000000000  5.4299999999999997 26.2899999999999991
  1.3574999999999999  6.7874999999999996 27.6475000000000009
  2.7149999999999999  8.1449999999999996 26.2899999999999991
  4.0724999999999998  9.5024999999999995 27.6475000000000009
  0.0000000000000000  8.1449999999999996 29.0049999999999990
  1.3574999999999999  9.5024999999999995 30.3625000000000007
  2.7149999999999999  5.4299999999999997 29.0049999999999990
  4.0724999999999998  6.7874999999999996 30.3625000000000007
  5.4299999999999997  0.0000000000000000 26.2899999999999991
  6.7874999999999996  1.3574999999999999 27.6475000000000009
  8.1449999999999996  2.7149999999999999 26.2899999999999991
  9.5024999999999995  4.0724999999999998 27.6475000000000009
  5.4299999999999997  2.7149999999999999 29.0049999999999990
  6.7874999999999996  4.0724999999999998 30.3625000000000007
  8.1449999999999996  0.0000000000000000 29.0049999999999990
  9.5024999999999995  1.3574999999999999 30.3625000000000007
  5.4299999999999997  5.4299999999999997 26.2899999999999991
  6.7874999999999996  6.7874999999999996 27.6475000000000009
  8.1449999999999996  8.1449999999999996 26.2899999999999991
  9.5024999999999995  9.5024999999999995 27.6475000000000009
  5.4299999999999997  8.1449999999999996 29.0049999999999990
  6.7874999999999996  9.5024999999999995 30.3625000000000007
  8.1449999999999996  5.4299999999999997 29.0049999999999990
  9.5024999999999995  6.7874999999999996 30.3625000000000007
