 H Si 
 1.0000000000000000
    14.5906239619226561    0.0000000000000000    0.0000000000000000
     0.0000000000000000   14.5906239619226561    0.0000000000000000
     0.0000000000000000    0.0000000000000000   28.6612245000000030
 H   Si 
  13  98
Cartesian
  6.0918200000000002  4.5999900000000000 18.6612244999999994
  9.8664400000000008  1.8484900000000000 17.2863745000000009
 13.7104999999999997  0.4050960000000000 17.4002045000000010
 14.2974999999999994  0.6427810000000000 12.0098544999999994
  6.3953100000000003  2.6160500000000000 17.1085144999999983
  7.8490099999999998  2.9012099999999998 17.9367945000000013
 12.1410000000000000  3.2012600000000000 18.5664544999999990
  8.0885700000000007  3.0238000000000000 11.2720645000000008
  3.6690200000000002  5.6255600000000001 15.7191344999999991
  6.6724699999999997  4.6957700000000004 18.1650445000000005
  4.7556399999999996  2.9876900000000002 18.6364145000000008
 11.6020000000000003  1.7799300000000000 16.8080144999999987
 12.9909999999999997 14.8696999999999999 17.1885344999999994
 12.0205000000000002 11.6003000000000007 17.4893545000000010
  1.8622700000000001  0.6811310000000000 18.0814644999999992
  4.0273399999999997 11.0204000000000004 18.6361445000000003
 13.7088999999999999 14.1111000000000004 14.6971544999999999
  9.3689400000000003  3.0312000000000001 18.0259345000000017
 13.8979999999999997  2.1815300000000000 12.6240144999999995
  8.9965600000000006  9.2458799999999997 13.1619845000000009
  7.7482899999999999  6.9194500000000003 10.8732884999999992
 14.2515999999999998  5.3650399999999996 11.2081645000000005
  6.3717499999999996  6.5954199999999998 16.1559744999999992
  7.1216499999999998 13.4769000000000005 18.5362745000000011
  4.3376299999999999 13.5280000000000005 16.0514244999999995
  6.4490299999999996  1.8392999999999999 15.8731045000000002
  6.3297499999999998 12.8373000000000008 15.2949645000000007
  9.8264800000000001  1.5856399999999999 14.6435545000000005
 14.0890000000000004  6.7249900000000000 13.0555144999999992
 12.1166999999999998  6.4801200000000003 14.4838544999999996
  8.1432099999999998  3.1035400000000002 14.5680945000000008
 11.8437000000000001  2.3861300000000001 11.5663044999999993
  6.7397600000000004  6.1104399999999996 12.7518344999999993
  6.2668600000000003  8.5552700000000002 10.0192005000000002
  2.2427899999999998 10.4296000000000006 14.8514245000000003
  1.1280500000000000 13.6052000000000000 13.6248245000000008
  1.7447999999999999 11.5283999999999995 18.4567245000000000
  4.0865499999999999  3.8341699999999999 13.9051045000000002
 10.7317000000000000 13.4613999999999994 17.5986945000000006
 10.6050000000000004  4.2515000000000001 11.0905345000000004
  3.3179099999999999 10.0269999999999992 12.8094944999999996
  0.5277510000000000  8.8024100000000001 10.3967095000000000
 11.3950999999999993  8.3583400000000001 10.4262254999999993
  0.8057920000000000  6.7110300000000001 16.3453744999999984
  9.6670999999999996 14.1164000000000005 15.7686845000000009
  8.7963500000000003 12.7180000000000000 12.2325944999999994
  1.6430600000000000  6.7012900000000002 14.2504744999999993
  1.2303700000000000  6.5161300000000004 10.0684714999999994
  2.5258600000000002  7.3012699999999997 17.7404045000000004
  4.8763199999999998  4.7654600000000000 15.8720844999999997
  5.6031399999999998  4.2163100000000000 12.2643944999999999
  2.4505499999999998  9.8944500000000009 10.6762435000000000
  9.0459399999999999 12.2015999999999991 18.5154545000000006
  5.1092899999999997  9.5461399999999994 17.3211845000000011
  2.1998600000000001  0.9389960000000001 10.2168165000000002
  8.5772800000000000  6.6248600000000000 15.9453244999999999
  8.7531199999999991 10.6170000000000009 11.3053744999999992
  0.2757840000000000 12.8232999999999997 11.6208845000000007
  8.6202000000000005 10.4327000000000005 17.1677044999999993
  9.3652899999999999 14.3727000000000000 10.7117935000000006
  5.6151700000000000  7.6509000000000000 14.1834345000000006
 10.5395000000000003  0.8434630000000000 12.4715345000000006
  4.2107500000000000  1.5508500000000001 13.5706845000000005
 11.9873999999999992  7.7661100000000003 16.4727744999999999
  3.5201099999999999  8.6012400000000007 16.0360444999999991
  3.3897100000000000  7.6752399999999996 13.1702645000000000
  2.4672800000000001  3.2393299999999998 10.1728775000000002
  9.6977399999999996  7.6248899999999997 11.8178544999999993
  6.8015800000000004 10.5594000000000001 15.8979444999999995
  1.7731100000000000  4.3834700000000000 13.8814145000000000
 14.5806000000000004 10.3943999999999992 14.8593945000000005
  2.4932099999999999  2.4112900000000002 16.8454945000000009
  2.5218900000000000  0.2955890000000000 12.4629844999999992
  3.9182999999999999  3.8115999999999999 17.8316145000000006
 14.1837999999999997  8.6873199999999997 16.5717144999999988
 13.8297000000000008 12.3379999999999992 16.0946044999999991
  7.5076799999999997 14.4167000000000005 16.3112944999999989
 12.0162999999999993 13.8635999999999999 13.1426944999999993
  7.3342900000000002  2.5956800000000002 12.4841045000000008
  8.5298800000000004  5.3818599999999996 13.9882244999999994
  1.2842300000000000 13.2384000000000004 17.0736944999999984
 13.9466000000000001  1.7757700000000001 14.8782744999999998
 13.2698000000000000  8.6851099999999999 11.9335644999999992
  0.8514310000000000  3.3018000000000001 15.6928944999999995
  6.3520799999999999  7.7147600000000001 18.1473145000000002
  9.9572800000000008  5.0011000000000001 16.8568745000000000
 10.6911000000000005 10.5414999999999992 14.2715844999999995
  4.2060199999999996  1.1838400000000000 15.8367144999999994
 12.0006000000000004  4.6671399999999998 15.8619245000000006
  3.3934299999999999  6.5557100000000004 11.0731444999999997
  5.9382700000000002  0.7313320000000000 12.2953445000000006
 14.1760000000000002  4.8048799999999998 16.9174244999999992
  4.8418500000000000 13.1487999999999996 18.2665545000000016
  0.1186190000000000  9.8394999999999992 18.5823944999999995
  0.9918800000000000  3.5569000000000002 11.8272844999999993
  3.9344500000000000 13.0230999999999995 12.0155145000000001
 11.9563000000000006  2.3896000000000002 15.4127045000000003
  2.4636399999999998 12.6478999999999999 15.2237345000000008
  5.5598400000000003 10.9648000000000003 12.4478244999999994
 12.8282000000000007 10.3983000000000008 13.2525645000000001
  6.8480999999999996  9.6113700000000009 13.9094645000000003
  6.6383200000000002 10.6168999999999993 10.4709415000000003
 12.7957999999999998 12.1274999999999995 11.8143945000000006
 10.7578999999999994  9.8782700000000006 16.5275345000000016
 14.5177999999999994  0.2097470000000000 10.4500875000000004
 11.1973000000000003  6.1807699999999999 18.3437444999999997
  4.4359999999999999  4.4874700000000001 10.3466264999999993
 10.1259999999999994 12.6410999999999998 14.0494245000000006
 10.4804999999999993  5.7628300000000001 12.8767344999999995
  5.3963299999999998  0.5862080000000000 10.0000000000000000
  6.5324000000000000 13.1814999999999998 12.9387345000000007
