 H Si 
 1.0000000000000000
    14.5768472422990421    0.0000000000000000    0.0000000000000000
     0.0000000000000000   14.5768472422990421    0.0000000000000000
     0.0000000000000000    0.0000000000000000   28.0721567999999984
 H   Si 
  46  79
Cartesian
  3.0262617100000000  3.4412383200000001  8.7308237099999992
  7.7797001300000002  8.8191193499999994 12.9830600100000009
  5.3248569799999999 11.8674973300000008 11.4546807099999999
  5.7923970200000001  8.9629995099999995 12.1812208599999998
  7.7712449799999996  2.9029634400000002 16.7653555400000016
  4.9685049399999999  6.4104942999999999 10.5598991899999994
  3.7253626199999998  6.0437618999999998 13.5392247799999996
  3.1803760400000001  4.3944394700000000 10.9815305900000002
  9.8087542800000005  9.6340411600000007 13.8647277399999993
  3.7169501399999998 10.2278322199999998 17.2736207800000017
  4.3115428600000003  7.5940899499999999 16.5812409400000007
  9.6845086800000004  7.0651935799999999 12.3484792599999995
 10.7631074200000008  9.3963835099999997 15.8695786400000003
  9.8184674699999999  7.7174687799999999 15.7474787500000009
  8.3167005199999995  5.8155956700000004 13.6653672400000001
 11.2002974900000005  6.6367375600000003  9.8027034700000009
  6.9573368899999997  7.2690564699999998 19.7520801000000006
  0.4893439100000000  9.3083332900000002 14.6045444700000004
  6.1061386999999998  8.3496133599999993 15.4779970400000000
  2.1030501300000002  6.4480325399999998 11.4558748799999996
  4.7010194800000003  6.9431034800000004 11.0164141000000004
  8.0839092099999998  9.3865687100000006 16.2426952799999995
 11.4807125899999996  6.1605151800000000 14.7986230499999998
  2.4991810299999999  7.0754354299999997 11.4437023199999999
  9.4255871100000004  6.9547045299999999 11.6571737399999993
  2.3724446299999999  4.4998141100000000 14.3382508200000007
 13.9027338399999998  7.0424121900000003 10.6293413200000000
  7.7133334199999997  6.5261476600000004  9.3807255299999994
  6.5200799099999998  7.7552186100000000 15.3206038299999996
  2.0206575899999999  8.4551332099999996 17.1028279400000010
  0.6820130700000000  8.1030047599999993 12.8091942900000006
  9.4223140700000005  7.1660848699999997 16.1188070799999998
  4.6433780799999997 10.6339239499999998 14.7149062100000005
 12.5609662699999998  7.4114583500000002 13.0726074400000005
 15.0038385999999999  7.4482484500000004 12.5689775099999999
 11.4686431700000000  8.3452854799999994 11.5540868900000007
  6.0602798499999997  6.4797290600000004 13.5318514699999994
  5.4017700000000000  8.3430959100000006 12.0607153399999998
  3.3445207600000000 10.2084659400000000 12.4202112000000007
  1.6444943599999999  6.1175072699999999 15.8852343299999994
 13.8312097000000005  6.7007084399999997 14.9604124400000007
  2.8656182700000001  5.8033889099999998  9.0200077899999993
 -0.6754778800000000  4.2130068899999999 13.4224839899999999
 11.0459880500000001  8.8956883100000006 11.2926383000000001
 12.4756723100000002  5.3030713199999999 11.5669350800000004
 10.4598689799999995  6.7434038699999999  9.9161960600000008
  2.2548516400000000 11.1411550800000008 12.8064809000000004
  5.4850862300000003  3.6541297500000001 12.3226534799999996
 11.9767175600000009  6.7017561600000004 18.1080802299999988
 13.4936447499999996  9.4694241100000003 17.6252202900000015
  5.4324215699999998 11.6731065699999998 15.4550677499999995
  7.6681415499999996  5.4287828100000004 10.3803771900000008
  3.2027390200000001  0.3721625000000000 11.5012586700000004
  2.0475838799999999 14.4166994600000002 16.2148647799999992
 11.3629440800000001  4.1194543000000001 11.9896222300000002
 13.4524507199999999  2.1760435899999999 16.7269685400000014
  8.6641035399999993  5.8395061600000000 17.5201448999999982
 14.1699940600000005  7.2305149100000001 18.0144416900000017
  2.1072962600000000  3.0488855300000002 14.1774935699999993
 10.3307580199999993  1.2066779900000000 16.2753513900000009
  7.7524467399999999 11.7249323000000008  9.4749003700000003
 10.5345935599999994  0.9347617300000000 11.9872543599999997
  0.6728418700000000 14.0858346999999995 14.1583752700000005
  8.7104289000000001  2.1488725500000001 11.1184565699999993
 11.3366625200000009 14.1112538000000001 17.5912875000000000
  9.5821208000000002 10.2424864000000007 18.7845061099999988
  1.3394360900000000 10.5064697200000001 14.8621411000000005
 12.2235714099999999  9.3718056000000001 15.5804553600000002
  5.8564481099999997  4.0164432500000000 10.0452897500000002
  7.5811432400000003  4.2876043399999997 16.2396866899999992
  8.6601034699999992  4.4807309699999998 14.2149061499999991
 15.1249222499999991 11.1327151200000003 11.2067549799999995
  2.2388598800000001  9.9264713100000002 16.9485343800000017
 12.5060024599999995 11.3761004700000008 14.3688958099999997
  5.3020995900000001  4.6374076999999998 15.9763156100000003
  5.0497211699999998  5.4289750999999997 13.7731449700000006
  6.3289083699999997 12.8697821099999992 10.9482738899999994
 10.6628782500000003  4.8443242399999997 18.1520171400000017
  9.2193592599999992 11.0010770999999998 11.1096049200000007
 12.5466827100000007  7.2847699900000000 14.5435966600000004
  2.8985517500000002 13.3438257199999999 13.1851362499999993
  7.6124394400000002  9.5108162699999994 17.6606539600000012
  2.3044102799999999  2.2105837199999998 16.3949827699999986
  5.7058135900000000 10.9250230300000002 17.6689928300000005
  6.6587618700000002  1.8181882700000001  9.9840241600000006
  0.3087616200000000  4.1679652599999999  9.9102635100000001
  7.4958811699999996 11.7813834499999999 14.3271855800000001
  6.9949639000000001  7.3051687899999997 18.2737270299999999
  4.9077474299999997  6.4874125300000003 17.3867107700000005
 13.4094726400000006  0.2378644100000000 18.1221248999999993
  0.6014068200000000 11.0316405900000003 18.2237455699999984
  3.8612324600000001  2.0827447499999998 12.9747195099999999
 -0.1479386600000000 12.2526833300000000 15.2794255700000008
  9.5826138800000003  4.1891748199999999 10.4962559100000004
  8.5758261800000000 10.0526683099999996 13.1621344100000002
 13.0358763000000000 11.6510940299999994 12.0757730700000003
 13.3048481400000007  5.7621287299999997 10.1496783799999992
 11.4602858800000007  8.8689153800000007 18.6504599499999983
 -0.0091022200000000  2.8961409699999998 13.2365398800000005
 13.6364625900000007  1.2263526700000000 14.5415649600000005
  7.5760678800000001  2.8203002499999998 13.0157325099999994
  4.5802087499999997  2.5405057499999999 16.6529106899999988
  5.1554308600000001  0.1323597200000000 10.2215238799999995
  1.2636321399999999  5.7339182500000003 17.2873248000000004
  1.0726097500000000  0.3508923600000000 10.4545905999999995
  0.3389355800000000 13.2135322100000003 17.3409764099999997
 10.8253735899999999 12.9644271500000006 14.3217263300000006
  0.1227335300000000 13.3841885600000001 11.9116433100000005
 -0.1657850200000000  2.2258272400000001 11.0120187900000008
  8.9955820299999996 12.7921585300000000 15.7695325600000000
 10.9724132300000008  4.3483687199999999 14.3549669499999997
 11.2344898900000008 11.9551989400000007 10.5980746700000008
  0.6566595700000000  3.4834120099999999 17.3421571700000001
  9.9836110199999997 13.2361993600000005 12.1541017199999999
  7.2231868099999996  0.8302462000000000 14.1484887300000004
  3.1820153400000000  5.4871324299999999 18.6395964800000016
 11.3676931499999991  3.2980480100000000 16.4878920099999995
  5.0247998899999997  1.1217935000000001 14.8089739300000005
  2.5459046800000000  4.4981382300000003  9.6414533900000006
  7.6565312199999997 13.5170837200000005 12.7816696800000003
  4.0515038499999996 13.6124032199999991 15.2039104799999993
 12.0943354999999997  2.2240183600000001 10.8885580599999994
 11.3744762700000006  0.6606035099999999 14.2205266300000002
  8.1846354100000003  0.3743197600000000 16.2037956799999989
 10.2333812099999992 12.0995378400000000 17.5624065199999997
