 H Si 
 1.0000000000000000
    14.5503688310511698    0.0000000000000000    0.0000000000000000
     0.0000000000000000   14.5503688310511698    0.0000000000000000
     0.0000000000000000    0.0000000000000000   10.4895783409679151
 H   Si 
  19  84
Cartesian
  4.2944100000000001  1.4395500000000001  5.6543099999999997
  3.7852999999999999  3.7614899999999998  4.0864000000000003
  3.1221999999999999  3.4368900000000000  4.1027100000000001
  3.9836900000000002  4.3753599999999997  6.9082699999999999
  2.1645799999999999  2.6748300000000000  9.0663099999999996
  5.7360600000000002  0.4305830000000000  6.6663199999999998
  0.2452560000000000  3.0588199999999999  3.4765100000000002
  0.1286500000000000  2.4964200000000001  0.1378500000000000
  0.6638230000000001  3.4885899999999999  6.7257100000000003
  2.8517600000000001  6.0504499999999997  3.0671300000000001
  3.6158500000000000  3.8867099999999999  6.4536699999999998
  3.0682100000000001  5.3023600000000002  3.1036400000000000
  1.7492900000000000  5.0302400000000000  5.5305900000000001
  2.2582000000000000  2.5712299999999999  5.2485200000000001
 14.2203999999999997  5.6940799999999996 10.3888999999999996
  4.0009600000000001  6.4253000000000000  5.4322600000000003
  4.4910600000000001  2.3776000000000002  8.9031400000000005
  1.9724200000000001  6.2945799999999998  0.9388990000000000
  2.2411400000000001  5.4412500000000001  5.8438499999999998
 13.0048999999999992  9.5962499999999995 -0.0017548200000000
  7.8451800000000000 11.9913000000000007  9.9886999999999997
 10.1684999999999999 11.9587000000000003  9.5015300000000007
  0.3560750000000000 13.8473000000000006  9.6600199999999994
  6.9676299999999998  7.4500400000000004  7.8796099999999996
 11.4951000000000008  4.1752799999999999  3.4767899999999998
 13.0428999999999995 11.5562000000000005  1.4181500000000000
  5.7217599999999997 11.7911000000000001  2.7829400000000000
  7.9825200000000001  6.2466299999999997  3.0905200000000002
  9.9190900000000006 11.3216999999999999  4.5103499999999999
 11.0410000000000004 13.4968000000000004  8.1750600000000002
 14.4990000000000006  7.6693499999999997  6.6066599999999998
  1.8557999999999999  8.6046999999999993  5.1203300000000000
  2.7443100000000000  7.5663200000000002  1.0399499999999999
  6.5360699999999996  5.0612500000000002  8.0431799999999996
 12.5800999999999998 13.6122999999999994  4.7401499999999999
  9.7922799999999999  3.9205500000000000  0.0440825000000000
  6.2016700000000000 10.6047999999999991  6.3422700000000001
 10.6799999999999997  1.4164399999999999  8.1527700000000003
  2.8956800000000000  1.6818700000000000  6.2584000000000000
  8.8682700000000008  0.2645980000000000  3.2520500000000001
  7.0462899999999999  9.7633500000000009  2.9625800000000000
 12.9306999999999999  1.8571200000000001  7.7826800000000000
 14.6058000000000003  8.9969500000000000  8.6781600000000001
  5.1047399999999996  8.6093200000000003  7.1477899999999996
 11.8071999999999999  7.9093099999999996  3.3467899999999999
  8.5930000000000000 14.5591000000000008  5.6209699999999998
 11.2516999999999996 12.8775999999999993  0.8858530000000000
  1.9360500000000000 10.6461000000000006  6.3289999999999997
  0.4477370000000000 12.5958000000000006  1.1154599999999999
 11.8400999999999996 10.0610999999999997  4.2325499999999998
  6.4279299999999999  5.7423900000000003 10.4337999999999997
  1.3593299999999999  8.7858800000000006  2.6405300000000000
  3.1411500000000001  1.8196399999999999  8.4922000000000004
 13.3672000000000004 11.6494999999999997  3.6259199999999998
  7.6509799999999997  9.9965200000000003  0.7876330000000000
  9.6626899999999996 12.7876999999999992  2.7190500000000002
  2.0486900000000001  9.1958199999999994  9.9134499999999992
 13.0777000000000001  5.7244099999999998  6.5762900000000002
 13.3933999999999997  2.9286599999999998  4.1027199999999997
  8.3337400000000006  7.1189799999999996  9.6761400000000002
  6.2892599999999996 12.1821000000000002  8.0496999999999996
 12.8747000000000007  6.2176200000000001  0.2374000000000000
  4.3016100000000002 11.2528000000000006  1.0114799999999999
  7.5649300000000004 13.0950000000000006  1.6363900000000000
  6.4980300000000000 13.8429000000000002  6.3105500000000001
 11.1484000000000005  5.2054999999999998  1.4067700000000001
 13.5024999999999995  8.0497099999999993  1.7028000000000001
  1.7672500000000000 14.2379999999999995  6.4848999999999997
 13.9021000000000008  1.2979099999999999  9.9014799999999994
  2.4665499999999998 14.0780999999999992  8.7095699999999994
  5.4688100000000004  9.4981399999999994 10.4818999999999996
 10.0816999999999997  1.6851799999999999 10.2584999999999997
 10.9728999999999992  9.7316900000000004  9.4867299999999997
 11.7180999999999997  6.4266800000000002  8.5104600000000001
 10.1668000000000003  2.1478600000000001  3.9944000000000002
 12.1953999999999994  1.0267800000000000  3.3668900000000002
  5.8793899999999999  7.6412899999999997  3.1963499999999998
 13.9415999999999993  0.0317988000000000  6.3273799999999998
  8.7939299999999996  8.1776900000000001  6.3873800000000003
 12.8253000000000004  9.4162599999999994  6.2508100000000004
  1.0777399999999999 12.1592000000000002  3.2245499999999998
  7.7683700000000000  4.5618699999999999  1.4202999999999999
  8.1567399999999992  9.9199400000000004  4.9820799999999998
  2.5632500000000000 12.6013999999999999  5.0840800000000002
  1.8889700000000000 10.6540999999999997  1.3865700000000001
  9.3008299999999995  6.1883100000000004  5.2399100000000001
 10.9627999999999997  8.4453300000000002  7.6414700000000000
 12.0235000000000003  0.6388250000000000  0.8506400000000000
  9.4327400000000008  2.1710500000000001  6.2658699999999996
  8.6665500000000009  4.4751599999999998  6.7559399999999998
 13.7929999999999993  3.5065300000000001  6.3871700000000002
  3.4768200000000000 10.0106000000000002  8.1949500000000004
  4.1085500000000001 12.1826000000000008  9.1974800000000005
 10.4827999999999992 13.0311000000000003  5.9874299999999998
  9.4089899999999993  8.6523000000000003  0.3387730000000000
  5.0313699999999999 12.4074000000000009  4.9711299999999996
 11.6786999999999992  6.2026599999999998  4.8248300000000004
  9.5709599999999995  5.4191000000000003  8.6221300000000003
  5.1077599999999999  7.4025299999999996  0.9586910000000000
 14.2395999999999994 10.9383999999999997  7.3536700000000002
  4.2056699999999996  7.8121200000000002  5.0829700000000004
  9.9433600000000002  7.2932399999999999  2.1427700000000001
 13.4491999999999994 13.0765999999999991  8.0651799999999998
