 H Si 
 1.0000000000000000
    14.5307357155388193    0.0000000000000000    0.0000000000000000
     0.0000000000000000   14.5307357155388193    0.0000000000000000
     0.0000000000000000    0.0000000000000000   26.8905163999999957
 H   Si 
   5  76
Cartesian
 11.4660665099999992  3.7815286299999999 12.9732800899999994
  4.0267791199999996  7.9597534699999999 13.8624052700000000
 10.2002503900000008  2.9606219999999999 14.4547667999999998
  8.0970694499999993 13.9686413900000002 15.6357158399999996
  5.7852124600000003  7.2293248099999996  9.8258036499999992
  0.8703100700000000  1.3774530300000001 15.1218144900000002
  8.4045991900000008  9.0309103000000004 14.1130968100000000
  4.7159067800000001  4.0583129500000004 12.4673607299999993
 13.1534931200000003  2.0942713899999998 14.8924713900000008
 11.6780926500000000  7.4385712699999997 13.7914846799999999
  1.8719772699999999  5.0560485699999997 14.1646908400000004
 10.7421852399999995 12.8119492499999996 15.9765104200000003
  0.8572397800000000  8.0466941399999996 14.3637116900000006
  2.1854977199999999 11.0736193299999996 16.1022031699999992
 10.7019062100000006  9.5229163999999997 14.2751165699999998
 13.6463596799999998  1.5981759499999999 12.5841395100000000
 10.2045055799999993  0.8360912300000000 10.9937136700000000
  6.4481656300000001 14.3909925199999993 10.4802572800000000
 13.3393568100000000  4.4230023300000001 15.5188762400000009
 10.6968762700000006 11.0994403199999994 12.5420078400000001
  1.1324361000000001 11.0489619900000005 12.3729044600000009
  1.0104216500000001  4.6923252599999996 16.7480051500000009
  5.0511893700000003 13.6388367099999996 15.8185175900000008
  4.3415746999999998 10.7091548099999994 10.8696651499999994
  5.3113105500000000 11.5893004099999999 14.6800329699999992
 11.5624539300000002  5.9548414400000000 15.6280109599999992
  5.9949313200000001  4.2802776600000003 16.0552160700000002
  2.7531425700000001 13.2811790999999992 15.5802254599999994
 11.7941356800000001  0.1559574900000000 12.6105285600000006
  4.2445749599999996 10.0806246900000005 16.1826300399999994
  4.8217085700000002 -0.0734992700000000 12.1402558400000000
  0.6799409400000000 10.3097522500000007 14.5158182999999994
  8.7383808700000003 12.3605836500000006 12.9068249200000000
  2.7073842400000001  7.8284012699999996 12.9040227499999993
 11.6596507999999996 10.7185524700000006 16.0882917600000006
 10.3666190100000009  6.3242706200000001 12.1770278100000002
  2.8858416999999998  0.9755376600000000 11.4540812600000006
 14.7942233699999992  8.1650365699999998 10.8288563900000003
  1.3390274300000000 14.5485384300000007 16.9285610300000009
  8.7552399500000000  3.3591283900000000 14.5127282300000005
  7.6507282500000002  1.4799158900000000 13.6459465800000004
 13.4164485100000004 11.6992843099999995 14.9296121999999993
  1.1941903100000000  0.5229180400000000 12.9303803899999998
 14.0097563100000002 11.8786741300000003 11.0216240699999997
 11.6541569400000000  4.4038475699999999 11.6205517900000004
  8.4632541600000000 12.5459141600000006 16.3082427500000016
  6.7999260399999999  4.9324661100000000 11.7438838400000005
 11.3161500700000008 14.8720399299999997 14.9557681799999997
  7.9655985100000004  3.4682604800000001 10.3026369800000008
  7.9352373399999996  6.9470447599999998 15.0399421600000007
  6.6050322599999998 10.4229013899999998 10.9248836199999992
  9.0865142900000002 14.2782177299999997 14.2632782599999999
  7.5603771799999997 12.4596261899999998 10.9360880599999994
  7.7897881599999996  8.6344464599999995 11.7872515100000008
  6.1359583000000004  7.0982909799999998 11.2618731699999994
  2.1184568600000002 12.9316333300000004 13.3148296100000003
  9.4174874800000001  5.7667511400000002 16.4332477799999985
  2.4127844999999999  9.4380731800000000 11.3142288999999998
  1.5647255400000000  4.5186395099999999 10.6475252000000005
  1.9559337600000000  6.7015440699999997 15.8717226100000008
  5.8865399299999996  6.5154465999999998 15.9729600900000008
 14.8905391500000004 12.4785255199999998 16.6401157700000013
  7.9520951799999997  1.3791147399999999 11.3154813999999995
 13.9586240799999999  3.7351471400000000 11.5923036899999996
  5.4527934299999998  0.8546754200000000 14.2477694800000005
 13.8443143400000004  7.2864292800000001 12.8656674899999999
  4.0436386799999999  7.8122813400000002 15.5784046099999998
 10.2036619500000008  3.0602116200000000 10.4727972800000000
  8.1763339700000000  3.7729909099999999 16.7236243999999985
  2.9648005799999999  5.6180995300000003 12.2076668900000005
  3.3693594600000001  3.0581524899999999 10.7705388400000004
  4.2702407500000001 12.2437612300000005 12.6270436999999998
  7.5933070599999999 11.1741078100000006 14.5767957199999998
 13.1932504799999997  9.7869662799999997 10.6372064500000008
  2.3126296300000000  3.1798495199999999 15.3865753499999993
 10.9529531599999999  9.6903880400000002 10.7048123099999994
  9.6048304800000004  7.8332349099999998 10.5414704399999994
 14.2275483900000008  5.0651102000000003 13.4561585800000003
 12.5853608000000001 12.4753304699999994 12.7585738499999994
  8.4676882399999993  5.3859619500000004 13.3179251000000001
  4.5876728000000000  3.0147817699999999 14.6690064600000003
