 H Si 
 1.0000000000000000
    14.5802938633580741    0.0000000000000000    0.0000000000000000
     0.0000000000000000   14.5802938633580741    0.0000000000000000
     0.0000000000000000    0.0000000000000000   26.4569510000000001
 H   Si 
  40  63
Cartesian
  5.0942900000000000 12.0431000000000008 15.4532609999999995
  3.4019100000000000 13.7736999999999998 10.6029440000000008
  9.2215100000000003 14.4474999999999998 11.2634209999999992
  2.2121499999999998 12.2004000000000001 12.7106910000000006
 10.2592999999999996  2.0562299999999998 13.3294809999999995
 13.5792999999999999 13.9702999999999999 13.4376110000000004
  1.0783199999999999  0.7092980000000000 10.8011409999999994
  6.4825699999999999 12.1609999999999996 13.4152710000000006
 10.8431999999999995 13.2990999999999993 13.0752910000000000
  4.8636799999999996 11.3209000000000000 15.3748109999999993
 10.2395999999999994  1.2146699999999999 10.2769440000000003
 14.1433000000000000  2.5485099999999998 10.2384869999999992
  0.3057850000000000 11.6959000000000000 12.1395409999999995
  5.0896100000000004 13.3694000000000006 11.9113609999999994
  2.8258800000000002 14.4438999999999993 12.6924410000000005
  5.9997299999999996 11.6211000000000002 13.5891409999999997
  1.9408099999999999 10.3032000000000004 11.1954510000000003
  7.5143899999999997 11.5662000000000003 15.7438610000000008
  0.8829830000000000 14.0962999999999994 12.8627310000000001
  6.7633400000000004  0.4019480000000000 11.9845310000000005
 10.9484999999999992 10.7119999999999997 10.0283280000000001
  7.4278800000000000 13.0853999999999999 11.0556310000000000
  4.4149300000000000 10.9448000000000008 12.0455810000000003
  0.6987730000000000 13.4970999999999997 10.0760100000000001
  8.6955399999999994 12.5652000000000008 12.7060010000000005
 14.3777000000000008 11.6082999999999998 12.6516009999999994
 12.5510999999999999  1.6723699999999999 13.5896709999999992
  9.2766599999999997 14.5263000000000009 13.1498209999999993
  1.0934999999999999  1.5335399999999999 12.8478010000000005
  6.2278300000000000  9.5076099999999997 14.1829110000000007
 13.2864000000000004  1.6974300000000000 12.0372509999999995
 13.4900000000000002 13.1480999999999995 10.2790640000000000
  5.0017699999999996 14.1132000000000009 14.0056709999999995
  7.4573299999999998 14.0815999999999999 14.3611509999999996
 11.3635999999999999 12.8245000000000005 13.2619609999999994
 11.0638000000000005  0.4090370000000000 14.0960509999999992
  5.2023599999999997 11.2996999999999996 10.5685950000000002
 11.6440000000000001  0.1280890000000000 13.7742509999999996
  0.7766170000000000 13.7225999999999999 12.1677909999999994
 11.9126999999999992 14.0771999999999995 11.6330510000000000
 12.4954000000000001  9.9176099999999998 12.4143109999999997
  2.4874499999999999  5.4182600000000001 16.2258509999999987
  4.6551999999999998  2.0486800000000001 11.3925210000000003
 13.1338000000000008  2.8211100000000000 14.4375409999999995
  8.0575399999999995  2.2968700000000002 15.3443509999999996
 13.5394000000000005  9.8120600000000007 14.5029710000000005
 10.8681000000000001  8.3092100000000002 12.8180809999999994
  9.8451599999999999  3.3009900000000001 12.5981310000000004
  9.7568599999999996  3.7045100000000000 15.9158510000000000
 12.4712999999999994  9.4308599999999991 16.4569510000000001
  0.7446440000000000  6.8534400000000000 16.0819809999999990
 13.0610999999999997  4.8686999999999996 13.3008109999999995
  4.6908700000000003  0.0774202000000000 15.3126610000000003
 10.0183999999999997 14.0574999999999992 16.3096910000000008
 10.6004000000000005 10.8017000000000003 15.6419910000000009
  2.1947299999999998 11.9200999999999997 14.1901010000000003
  3.0257499999999999  7.9273899999999999 11.5227810000000002
 12.0185999999999993 13.3953000000000007 10.3148190000000000
 11.5351999999999997  6.5370799999999996 14.1792510000000007
 11.7933000000000003  4.1868200000000000 11.4928509999999999
  9.6040799999999997  5.1867599999999996 14.2018310000000003
  4.2674099999999999  9.5094100000000008 12.5078010000000006
  1.6795199999999999  1.7984599999999999 10.0000000000000000
  2.7495500000000002 13.5627999999999993 15.8571109999999997
  0.6715930000000000  0.4091580000000000 15.8325410000000009
  6.3216799999999997  5.5241800000000003 15.6141609999999993
  0.9484660000000000 10.3109999999999999 10.0869090000000003
  4.2251700000000003  6.4383800000000004 15.1330109999999998
 11.2068999999999992  6.0243399999999996 10.1796810000000004
  7.5126400000000002  6.9092500000000001 12.1438109999999995
  9.4370499999999993  9.7994800000000009 13.9013209999999994
  9.0947399999999998 11.2788000000000004 12.0974710000000005
  2.4234800000000001  3.4622400000000000 14.7849310000000003
  7.7673800000000002 14.5123999999999995 11.0211210000000008
  3.0202000000000000  3.4697800000000001 10.7848910000000000
  5.9812399999999997  5.2715100000000001 11.6965009999999996
  3.9939499999999999  8.6093499999999992 16.0257609999999993
 11.1675000000000004 11.4596999999999998 11.2035210000000003
  0.3062480000000000  5.2792199999999996 11.9681110000000004
  2.9077600000000001  9.7060300000000002 14.3044510000000002
  7.8120900000000004  6.6768000000000001 14.3722709999999996
 11.8853000000000009  3.1145800000000001 16.4450910000000015
  7.6818499999999998 10.6639999999999997 10.3188019999999998
  8.7279699999999991  0.1630970000000000 14.4877909999999996
  0.3495950000000000 11.5566999999999993 15.2864810000000002
  4.2664700000000000  2.3019699999999998 15.4780110000000004
  3.9803600000000001 14.4505999999999997 11.8281510000000001
  2.4022500000000000  4.6098900000000000 12.6529209999999992
  6.0960099999999997  3.3220800000000001 14.6692809999999998
 13.9370999999999992  8.8889899999999997 11.0469609999999996
  0.8088460000000000  7.5149699999999999 12.0348410000000001
  8.3395100000000006  2.4024899999999998 11.1276709999999994
 11.6839999999999993  7.3094299999999999 16.3743310000000015
  0.7319850000000000  2.0383800000000001 14.2811409999999999
 12.8087000000000000  2.3519700000000001 10.8072710000000001
  7.4458900000000003  8.8176600000000001 14.6382910000000006
  6.3065800000000003  8.7799499999999995 11.1824309999999993
 13.6480999999999995 13.4298999999999999 14.8574409999999997
  6.4465899999999996  3.2245699999999999 12.3220609999999997
  9.5766299999999998  7.2498199999999997 11.1661909999999995
  0.8849910000000000  8.3882899999999996 14.1410809999999998
 11.7684999999999995 12.7302999999999997 15.9257310000000007
  4.0438499999999999  6.3205400000000003 12.7235610000000001
