 H Si 
 1.0000000000000000
    14.5584376764090351    0.0000000000000000    0.0000000000000000
     0.0000000000000000   14.5584376764090351    0.0000000000000000
     0.0000000000000000    0.0000000000000000    9.9207611150500110
 H   Si 
   5  85
Cartesian
  2.6137299999999999  8.2834199999999996  6.6562799999999998
  2.5329100000000002  7.3214399999999999  0.9869340000000000
  7.6943700000000002  8.6211099999999998  3.5090599999999998
  6.2036800000000003  9.5347000000000008  6.8698100000000002
  2.5894400000000002 13.4223999999999997  4.0666200000000003
 14.5068999999999999 12.0352999999999994  5.9264900000000003
  0.8350290000000000  6.1144600000000002  8.6101299999999998
  9.3413000000000004 12.6097999999999999  2.7252399999999999
  4.0271400000000002  3.7715600000000000  1.3245899999999999
 13.9158000000000008  3.5848499999999999  4.8642500000000002
  8.3795999999999999  0.0499630000000000  3.6114799999999998
 14.4763000000000002 10.6560000000000006  7.9543600000000003
 14.2772000000000006 14.4480000000000004  2.9718499999999999
 13.1113000000000000  8.8090100000000007  9.7871299999999994
 10.4122000000000003  1.7577600000000000  8.5916399999999999
  4.0713299999999997 13.2387999999999995  9.4941999999999993
 10.6457999999999995  8.0117799999999999  2.3283999999999998
  6.2837500000000004  1.4155700000000000  6.4409400000000003
 12.2218000000000000 12.5611999999999995  5.4892899999999996
  6.2685500000000003 14.1887000000000008  9.8835300000000004
 10.6618999999999993  9.0321400000000001  0.1570200000000000
  2.6267800000000001  0.4323360000000000  0.3377770000000000
  4.8853099999999996  5.9225700000000003  4.8249599999999999
 13.9870999999999999  8.9186999999999994  3.6948799999999999
  6.4688100000000004  3.0363000000000002  3.1907100000000002
 14.3274000000000008  7.4111500000000001  5.5080000000000000
  1.6386000000000001 14.4913000000000007  4.4348099999999997
 12.2590000000000003  6.1901200000000003  2.3195199999999998
  5.2871899999999998  5.1065199999999997  2.7124600000000001
 11.0161999999999995  9.4011999999999993  6.1114600000000001
 10.7727000000000004 11.4789999999999992  7.0381799999999997
  8.3043300000000002  3.1699999999999999  9.1815200000000008
 13.0230999999999995  8.9314999999999998  7.0812799999999996
  9.6290300000000002  2.9112600000000000  5.3366400000000001
  1.1785600000000001 14.0129000000000001  6.6147600000000004
 11.6331000000000007  9.4165500000000009  3.8901200000000000
  6.4656300000000000  1.6329800000000001  8.7606500000000000
  6.8667499999999997  5.3919100000000002  6.0891400000000004
  8.5314200000000007  7.3753299999999999  3.1725500000000002
  1.2623500000000001  6.5509899999999996  0.8855360000000000
  1.6599900000000001  3.9778300000000000  4.1048299999999998
  8.4745399999999993 12.2327999999999992  7.1762800000000002
 13.3778000000000006 11.9017999999999997  9.8240700000000007
 11.2131000000000007  5.7924199999999999  7.8859800000000000
 13.2378000000000000  6.9829100000000004  8.3742900000000002
 12.8459000000000003  1.4786999999999999  3.9687100000000002
 13.9461999999999993  7.7180700000000000  1.7825899999999999
 13.4108000000000001 14.5268999999999995  9.2530800000000006
 12.5747000000000000  4.1077899999999996  0.8988140000000000
 10.1431000000000004 13.2705000000000002  0.6744150000000000
  9.9847500000000000  0.9401590000000000  6.4404399999999997
  8.1194299999999995 12.6181000000000001  9.4796999999999993
 13.8129000000000008  2.8311099999999998  7.1251899999999999
  1.8234500000000000  4.4837499999999997  1.7532900000000000
 11.3498000000000001 11.8414000000000001  3.5341800000000001
  0.4641850000000000  0.8685530000000000  0.9233980000000001
 10.5434000000000001  5.1685999999999996  5.7179500000000001
 13.3915000000000006 12.2875999999999994  2.3087599999999999
  1.7976399999999999  7.0622800000000003  6.6137600000000001
  3.2780999999999998  3.5775899999999998  7.3680399999999997
 12.7942999999999998  5.6683899999999996  4.6372299999999997
 11.8614999999999995  3.5519300000000000  8.5904199999999999
  9.1557600000000008  8.4598999999999993  6.7497800000000003
  6.9905600000000003  4.9805900000000003  8.4099900000000005
  2.9553500000000001  5.2773300000000001  5.7257100000000003
 11.6303999999999998  2.2145999999999999  2.1481599999999998
  1.0618099999999999  3.7347199999999998  8.3652400000000000
  7.3952799999999996  9.2057099999999998  9.7001399999999993
  7.5485300000000004  6.9020000000000001  9.6630299999999991
 11.9082000000000008  0.2361600000000000  5.5628200000000003
  4.2012200000000002  1.5275099999999999  1.9972700000000001
  2.8558400000000002  1.8748199999999999  4.1165399999999996
  8.0695499999999996 14.3615999999999993  5.8340699999999996
  9.4777100000000001  2.1738100000000000  3.0112800000000002
  7.2570699999999997  3.2953600000000001  5.2864000000000004
  5.0325499999999996  3.6339700000000001  9.0483799999999999
  0.2082260000000000 11.0216999999999992  3.7232300000000000
  3.9285899999999998  1.6055999999999999  6.3182799999999997
  8.7105099999999993  6.6675599999999999  5.3499499999999998
  3.0823299999999998  0.0338039000000000  7.8727400000000003
  8.3966499999999993 10.9253999999999998  1.1924800000000000
 11.4859000000000009  0.6572170000000001  0.3765370000000000
  0.3183590000000000  3.1372000000000000  0.6257150000000000
 11.1196999999999999 11.5291999999999994  9.4260400000000004
  7.5774299999999997  9.9908900000000003  7.3081600000000000
 13.5840999999999994  0.5678000000000000  7.1305500000000004
  8.1830300000000005  3.5505599999999999  1.5810500000000001
  7.3554500000000003  5.8823999999999996  1.8864099999999999
  9.6465800000000002  7.3249199999999997  8.7138299999999997
  6.4337700000000000  0.6267170000000000  2.1393100000000000
