 H Si 
 1.0000000000000000
    14.5411363218109368    0.0000000000000000    0.0000000000000000
     0.0000000000000000   14.5411363218109368    0.0000000000000000
     0.0000000000000000    0.0000000000000000   28.7001550000000023
 H   Si 
  13  97
Cartesian
  4.3748800000000001  4.3559599999999996 16.8988650000000007
  6.0873699999999999  5.2262700000000004 18.4513150000000010
  0.8890080000000000  6.6570099999999996 17.2516350000000003
  4.9646499999999998  7.1582100000000004 16.6431849999999990
  2.8363399999999999  6.1703700000000001 17.6964550000000003
  9.9438099999999991  0.4315210000000000 15.2550950000000007
  3.0418799999999999  6.8637199999999998 18.0718649999999990
  3.5819999999999999  8.0571199999999994 16.4162250000000007
  3.0868000000000002  5.9129600000000000 15.6064950000000007
  2.5981500000000000  6.3960900000000001 15.2219549999999995
  6.8297499999999998  3.4617399999999998 16.1327749999999988
  2.4563600000000001  4.4878799999999996 17.0627050000000011
 10.0444999999999993 14.1722000000000001 15.1796150000000001
  4.3510700000000000  3.7247499999999998 13.9016249999999992
  7.9134599999999997  3.1610800000000001 12.2021149999999992
  0.3563240000000000  3.5214799999999999 13.2410150000000009
 13.9984999999999999  6.5182799999999999 11.7448850000000000
  7.0520199999999997  6.3442600000000002 18.6442750000000004
 13.4039000000000001  8.5593500000000002 10.8070009999999996
  7.5325100000000003 11.0485000000000007 11.6758950000000006
  9.4859799999999996  1.5843000000000000 13.0409150000000000
  9.0962800000000001  2.9961500000000001 10.1225120000000004
  6.4690599999999998  9.8265200000000004 16.5455749999999995
 13.1593999999999998  5.1597499999999998 13.3856149999999996
  2.2717600000000000  0.5148980000000000 14.4169750000000008
  8.5106900000000003 13.8851999999999993 10.0000000000000000
  5.1431399999999998  3.8736600000000001 10.4586000000000006
 14.1201000000000008  3.4580299999999999 18.3927249999999987
  5.7902300000000002  0.4172880000000000 15.8992450000000005
 14.4972999999999992 12.7012000000000000 10.8112119999999994
  3.4309799999999999 12.6457999999999995 17.2065650000000012
  5.6534500000000003  5.8367800000000001 13.9173150000000003
  9.0949200000000001 12.6244999999999994 17.1948650000000001
  0.3625930000000000  1.7691100000000000 14.7691750000000006
 11.1125000000000007 11.4661000000000008 10.7807410000000008
 10.9068000000000005  2.4812900000000000 11.3996549999999992
  3.1503800000000002  8.0755900000000000 12.0032850000000000
  8.4432799999999997  9.6991599999999991 15.5629050000000007
  7.4373500000000003  2.0817700000000001 16.1975450000000016
 14.4911999999999992  2.9953400000000001 10.9427990000000008
  6.1117299999999997 13.7607999999999997 10.0686710000000001
  2.0704600000000002  2.1603500000000002 10.6832519999999995
 12.7650000000000006  5.9818600000000002 15.4939649999999993
 11.5970999999999993  0.8012150000000000 18.0525950000000002
  5.1148300000000004  8.1613900000000008 13.2289549999999991
  1.1815100000000001  2.0198200000000002 17.2132150000000017
  9.0541999999999998 11.6852999999999998 10.0988600000000002
  2.6276199999999998 10.4018999999999995 17.6597550000000005
  9.4555000000000007 14.5951000000000004 18.4396050000000002
  9.0771400000000000 11.9153000000000002 15.1025749999999999
  2.5169400000000000  9.9200099999999996 10.6664820000000002
  5.6109999999999998  2.4703900000000001 12.3799949999999992
 14.5211000000000006  7.4298000000000002 16.3723850000000013
  3.8625900000000000  1.9448799999999999 15.4998149999999999
 12.3627000000000002  4.2166199999999998 16.9455950000000009
  7.8048299999999999  6.2000900000000003 14.7531049999999997
  5.8795599999999997 13.6045999999999996 13.9054950000000002
 11.5553000000000008  9.4063800000000004 11.6686850000000000
 11.0223999999999993  4.5400499999999999 12.4811750000000004
  3.3479800000000002  3.3898199999999998 17.2874650000000010
  1.4200100000000000  6.7651700000000003 12.9468850000000000
  5.6689600000000002 11.4314000000000000 10.2109970000000008
  9.0249000000000006 14.1376000000000008 12.2421450000000007
  2.3274200000000000  4.6517799999999996 12.8259249999999998
  7.8142600000000000 12.6971000000000007 13.3722750000000001
  2.9523799999999998  9.2615200000000009 15.7870249999999999
 10.3604000000000003  7.8197099999999997 12.8850049999999996
  0.2224510000000000 11.8788999999999998 15.1147250000000000
  0.3314190000000000 12.8315999999999999 18.7001549999999988
  6.4313599999999997  5.3751400000000000 11.6443949999999994
  1.1745800000000000  8.2989300000000004 14.6360250000000001
 14.5566999999999993 10.0150000000000006 13.6614550000000001
  4.8771199999999997 10.0526000000000000 14.7542050000000007
 11.1534999999999993 13.2057000000000002 12.3774650000000008
  7.0925399999999996 11.6780000000000008 17.9228950000000005
 11.5000000000000000  7.9312600000000000 14.9726149999999993
 10.0762000000000000  8.4125700000000005 16.6156649999999999
 12.8526000000000007  0.7119780000000000 14.5677350000000008
  0.3589340000000000 10.3265999999999991 11.2901950000000006
 13.7834000000000003  9.0279299999999996 17.7862949999999991
 12.8926999999999996 13.1971000000000007 15.6642250000000001
 12.7044999999999995 13.2784999999999993 17.8924650000000014
 11.5937999999999999  2.0067200000000001 16.0680349999999983
 10.8751999999999995 11.7330000000000005 18.3685849999999995
  9.8669200000000004  6.3673599999999997 11.0612150000000007
 14.0763999999999996  5.0266799999999998 10.0123785999999999
  5.5822099999999999  7.9773500000000004 17.7400349999999989
 10.4777000000000005  5.2191299999999998 18.1749149999999986
  2.9556700000000000  0.6419899999999999 12.1771650000000005
  8.2976500000000009  8.3379399999999997 13.8062850000000008
  7.9413700000000000  1.8781399999999999 18.4800049999999985
  9.4599799999999998  2.4729299999999999 15.1720050000000004
  2.4506299999999999 12.8506999999999998 14.9841350000000002
 12.1080000000000005  9.9393499999999992 13.9758549999999993
  0.5221340000000000 10.9515999999999991 17.2047249999999998
  4.7015599999999997  6.6698500000000003 10.7253769999999999
  9.1425699999999992  4.4510199999999998 13.8718249999999994
  5.5498399999999997 13.3316999999999997 17.6657949999999992
  5.2018399999999998  0.2186250000000000 12.0645050000000005
 12.8350000000000009  1.4582200000000001 10.7815750000000001
  2.9175700000000000  4.4108599999999996 10.6433540000000004
  3.6063700000000001 11.9258000000000006 11.1567950000000007
  1.8541500000000000 14.4358000000000004 18.1615849999999988
 13.1667000000000005 14.2763000000000009 12.3191450000000007
 11.3889999999999993  9.4508100000000006 18.0091350000000006
  4.1419499999999996 11.9863000000000000 13.6054750000000002
  7.6142200000000004  6.8889500000000004 10.4862350000000006
  8.6994900000000008  6.4236199999999997 16.9731249999999996
  7.0026099999999998  8.6911500000000004 11.9764649999999993
 11.2631999999999994 11.9687999999999999 14.3370350000000002
